     Program PWSCF v.7.3.1 starts on  6Aug2024 at 14:42:27

     Waiting for input...
     Reading input from standard input

     Current dimensions of program PWSCF are:
     Max number of different atomic species (ntypx) = 10
     Max number of k-points (npk) =  40000
     Max angular momentum in pseudopotentials (lmaxx) =  4

     R & G space division:  proc/nbgrp/npool/nimage =      24
     Subspace diagonalization in iterative solution of the eigenvalue problem:
     a serial algorithm will be used

     Using Slab Decomposition

     Title:
     volume variation

     bravais-lattice index     =            8
     lattice parameter (alat)  =      12.9671  a.u.
     unit-cell volume          =    1548.2628 (a.u.)^3
     number of atoms/cell      =           22
     number of atomic types    =            3
     number of electrons       =        48.00
     number of Kohn-Sham states=           24
     kinetic-energy cutoff     =     100.0000  Ry
     charge density cutoff     =     800.0000  Ry
     scf convergence threshold =      1.0E-10
     mixing beta               =       0.7000
     number of iterations used =            8  plain     mixing
     energy convergence thresh.=      1.0E-05
     force convergence thresh. =      1.0E-05
     press convergence thresh. =      5.0E-01
     Exchange-correlation= PBESOL
                           (   1   4  10   8   0   0   0)
     nstep                     =          300

     celldm(1)=  12.967070  celldm(2)=   1.025571  celldm(3)=   0.692394
     celldm(4)=   0.000000  celldm(5)=   0.000000  celldm(6)=   0.000000

     crystal axes: (cart. coord. in units of alat)
               a(1) = (   1.000000   0.000000   0.000000 )
               a(2) = (   0.000000   1.025571   0.000000 )
               a(3) = (   0.000000   0.000000   0.692394 )

     reciprocal axes: (cart. coord. in units 2 pi/alat)
               b(1) = (  1.000000  0.000000  0.000000 )
               b(2) = (  0.000000  0.975067  0.000000 )
               b(3) = (  0.000000  0.000000  1.444264 )

     PseudoPot. # 1 for B  read from file:
     /home/mehlhorn/pseudos/b_pbesol_v1.4.uspp.F.UPF
     MD5 check sum: 369b69bef2c3aeed4453bd8b804fd6a8
     Pseudo is Ultrasoft + core correction, Zval =  3.0
     Generated by new atomic code, or converted to UPF format
     Using radial grid of  781 points,  4 beta functions with:
                l(1) =   0
                l(2) =   0
                l(3) =   1
                l(4) =   1
     Q(r) pseudized with  8 coefficients,  rinner =    1.100   1.100   1.100

     PseudoPot. # 2 for Ba read from file:
     /home/mehlhorn/pseudos/Ba.nc.z_10.oncvpsp4.dojo.v4-sp.upf
     MD5 check sum: c10ed334bb677c0554edec7181ce9143
     Pseudo is Norm-conserving + core correction, Zval = 10.0
     Generated using ONCVPSP code by D. R. Hamann
     Using radial grid of 1938 points,  8 beta functions with:
                l(1) =   0
                l(2) =   0
                l(3) =   1
                l(4) =   1
                l(5) =   2
                l(6) =   2
                l(7) =   3
                l(8) =   3

     PseudoPot. # 3 for H  read from file:
     /home/mehlhorn/pseudos/H_ONCV_PBEsol-1.0.upf
     MD5 check sum: 398ef8f67c0a7342c05c87c5e19ea467
     Pseudo is Norm-conserving, Zval =  1.0
     Generated using ONCVPSP code by D. R. Hamann
     Using radial grid of 1180 points,  2 beta functions with:
                l(1) =   0
                l(2) =   0

     atomic species   valence    mass     pseudopotential
     B                 3.00    10.81100     B ( 1.00)
     Ba               10.00   137.32700     Ba( 1.00)
     H                 1.00     1.00794     H ( 1.00)

      4 Sym. Ops. (no inversion) found ( 2 have fractional translation)

   Cartesian axes

     site n.     atom                  positions (alat units)
         1        Ba     tau(   1) = (   0.5000000   0.5127855   0.3462657  )
         2        Ba     tau(   2) = (   0.0000000   0.0000000   0.6923255  )
         3        B      tau(   3) = (   0.6102570   0.2453190   0.0000455  )
         4        B      tau(   4) = (   0.3897430   0.7802519   0.0000455  )
         5        B      tau(   5) = (   0.1102570   0.2674665   0.3461516  )
         6        B      tau(   6) = (   0.8897430   0.7581045   0.3461516  )
         7        H      tau(   7) = (   0.4340973   0.2996264   0.0001599  )
         8        H      tau(   8) = (   0.5659027   0.7259445   0.0001599  )
         9        H      tau(   9) = (   0.9340973   0.2131590   0.3460372  )
        10        H      tau(  10) = (   0.0659027   0.8124119   0.3460372  )
        11        H      tau(  11) = (   0.7220603   0.3933629  -0.0000058  )
        12        H      tau(  12) = (   0.2779397   0.6322081  -0.0000058  )
        13        H      tau(  13) = (   0.2220603   0.1194226   0.3462029  )
        14        H      tau(  14) = (   0.7779397   0.9061483   0.3462029  )
        15        H      tau(  15) = (   0.6392499   0.1457279   0.5404125  )
        16        H      tau(  16) = (   0.3607501   0.8798430   0.5404125  )
        17        H      tau(  17) = (   0.1392499   0.3670576   0.4981787  )
        18        H      tau(  18) = (   0.8607501   0.6585133   0.4981787  )
        19        H      tau(  19) = (   0.3605328   0.8798946   0.1519977  )
        20        H      tau(  20) = (   0.6394672   0.1456763   0.1519977  )
        21        H      tau(  21) = (   0.8605328   0.6584617   0.1941994  )
        22        H      tau(  22) = (   0.1394672   0.3671092   0.1941994  )

     number of k points=    27
                       cart. coord. in units 2pi/alat
        k(    1) = (   0.0000000   0.0000000   0.0000000), wk =   0.0312500
        k(    2) = (   0.0000000   0.0000000   0.3610660), wk =   0.0625000
        k(    3) = (   0.0000000   0.0000000  -0.7221320), wk =   0.0312500
        k(    4) = (   0.0000000   0.2437667   0.0000000), wk =   0.0625000
        k(    5) = (   0.0000000   0.2437667   0.3610660), wk =   0.1250000
        k(    6) = (   0.0000000   0.2437667  -0.7221320), wk =   0.0625000
        k(    7) = (   0.0000000  -0.4875333   0.0000000), wk =   0.0312500
        k(    8) = (   0.0000000  -0.4875333   0.3610660), wk =   0.0625000
        k(    9) = (   0.0000000  -0.4875333  -0.7221320), wk =   0.0312500
        k(   10) = (   0.2500000   0.0000000   0.0000000), wk =   0.0625000
        k(   11) = (   0.2500000   0.0000000   0.3610660), wk =   0.1250000
        k(   12) = (   0.2500000   0.0000000  -0.7221320), wk =   0.0625000
        k(   13) = (   0.2500000   0.2437667   0.0000000), wk =   0.1250000
        k(   14) = (   0.2500000   0.2437667   0.3610660), wk =   0.2500000
        k(   15) = (   0.2500000   0.2437667  -0.7221320), wk =   0.1250000
        k(   16) = (   0.2500000  -0.4875333   0.0000000), wk =   0.0625000
        k(   17) = (   0.2500000  -0.4875333   0.3610660), wk =   0.1250000
        k(   18) = (   0.2500000  -0.4875333  -0.7221320), wk =   0.0625000
        k(   19) = (  -0.5000000   0.0000000   0.0000000), wk =   0.0312500
        k(   20) = (  -0.5000000   0.0000000   0.3610660), wk =   0.0625000
        k(   21) = (  -0.5000000   0.0000000  -0.7221320), wk =   0.0312500
        k(   22) = (  -0.5000000   0.2437667   0.0000000), wk =   0.0625000
        k(   23) = (  -0.5000000   0.2437667   0.3610660), wk =   0.1250000
        k(   24) = (  -0.5000000   0.2437667  -0.7221320), wk =   0.0625000
        k(   25) = (  -0.5000000  -0.4875333   0.0000000), wk =   0.0312500
        k(   26) = (  -0.5000000  -0.4875333   0.3610660), wk =   0.0625000
        k(   27) = (  -0.5000000  -0.4875333  -0.7221320), wk =   0.0312500

     Initial potential from superposition of free atoms

     starting charge      47.9682, renormalised to      48.0000
     Starting wfcs are   42 randomized atomic wfcs

     Self-consistent Calculation

     iteration #  1     ecut=   100.00 Ry     beta= 0.70
     Davidson diagonalization with overlap
     ethr =  1.00E-02,  avg # of iterations =  2.0

     total energy              =    -155.95572733 Ry
     estimated scf accuracy    <       1.90957274 Ry

[...]

     End of self-consistent calculation

          k = 0.0000 0.0000 0.0000 ( 26171 PWs)   bands (ev):

   -24.5799 -24.5741  -9.9887  -9.9279  -9.7878  -9.7615  -9.7268  -9.6811
    -6.2015  -5.3059  -4.8000  -4.6297  -1.9587  -1.1016  -1.0684  -0.6843
    -0.3553  -0.3429  -0.3401  -0.1751  -0.0345   0.3453   0.3770   0.4159

[...]

          k =-0.5000 0.0000 0.0000 ( 26218 PWs)   bands (ev):

[...]

     highest occupied level (ev):     0.4159

!    total energy              =    -156.45593387 Ry
     estimated scf accuracy    <          5.1E-11 Ry

     The total energy is the sum of the following terms:
     one-electron contribution =     -25.86276650 Ry
     hartree contribution      =      26.29793977 Ry
     xc contribution           =     -48.73700112 Ry
     ewald contribution        =    -108.15410601 Ry

     convergence has been achieved in  11 iterations

     Forces acting on atoms (cartesian axes, Ry/au):

     atom    1 type  2   force =     0.00000000    0.00000000    0.00000892
     atom    2 type  2   force =     0.00000000    0.00000000   -0.00000892
     atom    3 type  1   force =     0.00044869    0.00229280   -0.00001565
     atom    4 type  1   force =    -0.00044869   -0.00229280   -0.00001565
     atom    5 type  1   force =     0.00044869   -0.00229280    0.00001565
     atom    6 type  1   force =    -0.00044869    0.00229280    0.00001565
     atom    7 type  3   force =     0.02064606   -0.00526431   -0.00002264
     atom    8 type  3   force =    -0.02064606    0.00526431   -0.00002264
     atom    9 type  3   force =     0.02064606    0.00526431    0.00002264
     atom   10 type  3   force =    -0.02064606   -0.00526431    0.00002264
     atom   11 type  3   force =    -0.01363699   -0.01652656    0.00000905
     atom   12 type  3   force =     0.01363699    0.01652656    0.00000905
     atom   13 type  3   force =    -0.01363699    0.01652656   -0.00000905
     atom   14 type  3   force =     0.01363699   -0.01652656   -0.00000905
     atom   15 type  3   force =    -0.00256309    0.01214072    0.01843586
     atom   16 type  3   force =     0.00256309   -0.01214072    0.01843586
     atom   17 type  3   force =    -0.00256309   -0.01214072   -0.01843586
     atom   18 type  3   force =     0.00256309    0.01214072   -0.01843586
     atom   19 type  3   force =     0.00262568   -0.01216095   -0.01843935
     atom   20 type  3   force =    -0.00262568    0.01216095   -0.01843935
     atom   21 type  3   force =     0.00262568    0.01216095    0.01843935
     atom   22 type  3   force =    -0.00262568   -0.01216095    0.01843935

     Total force =     0.087342     Total SCF correction =     0.000004

     Computing stress (Cartesian axis) and pressure

          total   stress  (Ry/bohr**3)                   (kbar)     P=      -43.30
  -0.00027437   0.00000000   0.00000000          -40.36        0.00        0.00
   0.00000000  -0.00027968   0.00000000            0.00      -41.14        0.00
[...]
     1.02794013     0.00000000     0.00000000
     0.00000000     1.02645477     0.00000000
     0.00000000     0.00000000     0.67299442
New lattice vectors in INITIAL alat:
     1.02794013     0.00000000     0.00000000
     0.00000000     1.02645477     0.00000000
     0.00000000     0.00000000     0.67299442
New lattice vectors in NEW alat (for information only):
     1.00000000     0.00000000     0.00000000
     0.00000000     0.99855501     0.00000000
     0.00000000     0.00000000     0.65470196
Discrepancy in bohr =     0.000000    0.000000    0.000000
     new conv_thr            =            1.0E-12 Ry

     new unit-cell volume =   1548.26276 a.u.^3 (   229.42887 Ang^3 )
     density =      2.41758 g/cm^3

[...]

ATOMIC_POSITIONS (crystal)
Ba               0.5000000000        0.5000000000        0.4999987594
Ba               0.0000000000        0.0000000000        1.0000012406
B                0.6273963679        0.2539875292        0.0000084082
B                0.3726036321        0.7460124708        0.0000084082
B                0.1273963679        0.2460124708        0.4999915918
B                0.8726036321        0.7539875292        0.4999915918
H                0.4554096088        0.2854124085       -0.0000121555
H                0.5445903912        0.7145875915       -0.0000121555
H                0.9554096088        0.2145875915        0.5000121555
H                0.0445903912        0.7854124085        0.5000121555
H                0.7157589785        0.4058194879        0.0000091892
H                0.2842410215        0.5941805121        0.0000091892
H                0.2157589785        0.0941805121        0.4999908108
H                0.7842410215        0.9058194879        0.4999908108
H                0.6658168521        0.1638697237        0.7794884291
H                0.3341831479        0.8361302763        0.7794884291
H                0.1658168521        0.3361302763        0.7205115709
H                0.8341831479        0.6638697237        0.7205115709
H                0.3341889191        0.8361295745        0.2205335413
H                0.6658110809        0.1638704255        0.2205335413
H                0.8341889191        0.6638704255        0.2794664587
H                0.1658110809        0.3361295745        0.2794664587

     Writing config-only to output data dir ./pwscf.save/ :
     XML data file
     NEW-OLD atomic charge density approx. for the potential

[...]

     Threshold (ethr) on eigenvalues was too large:
     Diagonalizing with lowered threshold

     Davidson diagonalization with overlap
     ethr =  2.86E-11,  avg # of iterations =  4.0

[...]

     Volume is kept fixed: isostatic pressure set to zero
     Energy error            =      4.4E-09 Ry
     Gradient error          =      7.9E-06 Ry/Bohr
     Cell gradient error     =      1.7E-03 kbar
ibrav =      8
 celldm(1) =     13.32937165
 celldm(2) =      0.99855501
 celldm(3) =      0.65470196
Input lattice vectors:
     1.02794013     0.00000000     0.00000000
     0.00000000     1.02645477     0.00000000
     0.00000000     0.00000000     0.67299442
New lattice vectors in INITIAL alat:
     1.02794013     0.00000000     0.00000000
     0.00000000     1.02645477     0.00000000
     0.00000000     0.00000000     0.67299442
New lattice vectors in NEW alat (for information only):
     1.00000000     0.00000000     0.00000000
     0.00000000     0.99855501     0.00000000
     0.00000000     0.00000000     0.65470196
Discrepancy in bohr =     0.000000    0.000000    0.000000

     bfgs converged in  61 scf cycles and  60 bfgs steps
     (criteria: energy <  1.0E-05 Ry, force <  1.0E-05 Ry/Bohr, cell <  5.0E-01 kbar)

     End of BFGS Geometry Optimization

     Final enthalpy           =    -156.4709052831 Ry

     File ./pwscf.bfgs deleted, as requested
Begin final coordinates
     new unit-cell volume =   1548.26276 a.u.^3 (   229.42887 Ang^3 )
     density =      2.41758 g/cm^3

CELL_PARAMETERS (alat= 12.96707008)
   1.027940126   0.000000000   0.000000000
   0.000000000   1.026454766   0.000000000
   0.000000000   0.000000000   0.672994416

ATOMIC_POSITIONS (crystal)
Ba               0.5000000000        0.5000000000        0.4999987594
Ba               0.0000000000        0.0000000000        1.0000012406
B                0.6273963679        0.2539875292        0.0000084082
B                0.3726036321        0.7460124708        0.0000084082
B                0.1273963679        0.2460124708        0.4999915918
B                0.8726036321        0.7539875292        0.4999915918
H                0.4554096088        0.2854124085       -0.0000121555
H                0.5445903912        0.7145875915       -0.0000121555
H                0.9554096088        0.2145875915        0.5000121555
H                0.0445903912        0.7854124085        0.5000121555
H                0.7157589785        0.4058194879        0.0000091892
H                0.2842410215        0.5941805121        0.0000091892
H                0.2157589785        0.0941805121        0.4999908108
H                0.7842410215        0.9058194879        0.4999908108
H                0.6658168521        0.1638697237        0.7794884291
H                0.3341831479        0.8361302763        0.7794884291
H                0.1658168521        0.3361302763        0.7205115709
H                0.8341831479        0.6638697237        0.7205115709
H                0.3341889191        0.8361295745        0.2205335413
H                0.6658110809        0.1638704255        0.2205335413
H                0.8341889191        0.6638704255        0.2794664587
H                0.1658110809        0.3361295745        0.2794664587
End final coordinates

     Writing config-only to output data dir ./pwscf.save/ :
     XML data file

     Final scf calculation at the relaxed structure.
     The G-vectors are recalculated for the final unit cell
     Results may differ from those at the preceding step.

     Using Slab Decomposition

     Title:
     volume variation

     bravais-lattice index     =            8
     lattice parameter (alat)  =      12.9671  a.u.
     unit-cell volume          =    1548.2628 (a.u.)^3
     number of atoms/cell      =           22
     number of atomic types    =            3
     number of electrons       =        48.00
     number of Kohn-Sham states=           24
     kinetic-energy cutoff     =     100.0000  Ry
     charge density cutoff     =     800.0000  Ry
     scf convergence threshold =      1.0E-12
     mixing beta               =       0.7000
     number of iterations used =            8  plain     mixing
     press convergence thresh. =      5.0E-01
     Exchange-correlation= PBESOL
                           (   1   4  10   8   0   0   0)

     celldm(1)=  12.967070  celldm(2)=   1.025571  celldm(3)=   0.692394
     celldm(4)=   0.000000  celldm(5)=   0.000000  celldm(6)=   0.000000

     crystal axes: (cart. coord. in units of alat)
               a(1) = (   1.027940   0.000000   0.000000 )
               a(2) = (   0.000000   1.026455   0.000000 )
               a(3) = (   0.000000   0.000000   0.672994 )

     reciprocal axes: (cart. coord. in units 2 pi/alat)
               b(1) = (  0.972819  0.000000  0.000000 )
               b(2) = (  0.000000  0.974227  0.000000 )
               b(3) = (  0.000000  0.000000  1.485896 )

     PseudoPot. # 1 for B  read from file:
     /home/mehlhorn/pseudos/b_pbesol_v1.4.uspp.F.UPF
     MD5 check sum: 369b69bef2c3aeed4453bd8b804fd6a8
     Pseudo is Ultrasoft + core correction, Zval =  3.0
     Generated by new atomic code, or converted to UPF format
     Using radial grid of  781 points,  4 beta functions with:
                l(1) =   0
                l(2) =   0
                l(3) =   1
                l(4) =   1
     Q(r) pseudized with  8 coefficients,  rinner =    1.100   1.100   1.100

     PseudoPot. # 2 for Ba read from file:
     /home/mehlhorn/pseudos/Ba.nc.z_10.oncvpsp4.dojo.v4-sp.upf
     MD5 check sum: c10ed334bb677c0554edec7181ce9143
     Pseudo is Norm-conserving + core correction, Zval = 10.0
     Generated using ONCVPSP code by D. R. Hamann
     Using radial grid of 1938 points,  8 beta functions with:
                l(1) =   0
                l(2) =   0
                l(3) =   1
                l(4) =   1
                l(5) =   2
                l(6) =   2
                l(7) =   3
                l(8) =   3

     PseudoPot. # 3 for H  read from file:
     /home/mehlhorn/pseudos/H_ONCV_PBEsol-1.0.upf
     MD5 check sum: 398ef8f67c0a7342c05c87c5e19ea467
     Pseudo is Norm-conserving, Zval =  1.0
     Generated using ONCVPSP code by D. R. Hamann
     Using radial grid of 1180 points,  2 beta functions with:
                l(1) =   0
                l(2) =   0

     atomic species   valence    mass     pseudopotential
     B                 3.00    10.81100     B ( 1.00)
     Ba               10.00   137.32700     Ba( 1.00)
     H                 1.00     1.00794     H ( 1.00)

      4 Sym. Ops. (no inversion) found ( 2 have fractional translation)

   Cartesian axes

     site n.     atom                  positions (alat units)
         1        Ba     tau(   1) = (   0.5139701   0.5132274   0.3364964  )
         2        Ba     tau(   2) = (   0.0000000   0.0000000   0.6729953  )
         3        B      tau(   3) = (   0.6449259   0.2607067   0.0000057  )
         4        B      tau(   4) = (   0.3830142   0.7657481   0.0000057  )
         5        B      tau(   5) = (   0.1309558   0.2525207   0.3364915  )
         6        B      tau(   6) = (   0.8969843   0.7739341   0.3364915  )
         7        H      tau(   7) = (   0.4681338   0.2929629  -0.0000082  )
         8        H      tau(   8) = (   0.5598063   0.7334918  -0.0000082  )
         9        H      tau(   9) = (   0.9821039   0.2202645   0.3365054  )
        10        H      tau(  10) = (   0.0458363   0.8061903   0.3365054  )
        11        H      tau(  11) = (   0.7357574   0.4165553   0.0000062  )
        12        H      tau(  12) = (   0.2921828   0.6098994   0.0000062  )
        13        H      tau(  13) = (   0.2217873   0.0966720   0.3364910  )
        14        H      tau(  14) = (   0.8061528   0.9297827   0.3364910  )
        15        H      tau(  15) = (   0.6844199   0.1682049   0.5245914  )
        16        H      tau(  16) = (   0.3435203   0.8582499   0.5245914  )
        17        H      tau(  17) = (   0.1704498   0.3450225   0.4849003  )
        18        H      tau(  18) = (   0.8574903   0.6814322   0.4849003  )
        19        H      tau(  19) = (   0.3435262   0.8582492   0.1484178  )
        20        H      tau(  20) = (   0.6844139   0.1682056   0.1484178  )
        21        H      tau(  21) = (   0.8574963   0.6814330   0.1880794  )
        22        H      tau(  22) = (   0.1704439   0.3450218   0.1880794  )

     number of k points=    27
                       cart. coord. in units 2pi/alat
        k(    1) = (   0.0000000   0.0000000   0.0000000), wk =   0.0312500
        k(    2) = (   0.0000000   0.0000000   0.3714741), wk =   0.0625000
        k(    3) = (   0.0000000   0.0000000  -0.7429482), wk =   0.0312500
        k(    4) = (   0.0000000   0.2435568   0.0000000), wk =   0.0625000
        k(    5) = (   0.0000000   0.2435568   0.3714741), wk =   0.1250000
        k(    6) = (   0.0000000   0.2435568  -0.7429482), wk =   0.0625000
        k(    7) = (   0.0000000  -0.4871135   0.0000000), wk =   0.0312500
        k(    8) = (   0.0000000  -0.4871135   0.3714741), wk =   0.0625000
        k(    9) = (   0.0000000  -0.4871135  -0.7429482), wk =   0.0312500
        k(   10) = (   0.2432048   0.0000000   0.0000000), wk =   0.0625000
        k(   11) = (   0.2432048   0.0000000   0.3714741), wk =   0.1250000
        k(   12) = (   0.2432048   0.0000000  -0.7429482), wk =   0.0625000
        k(   13) = (   0.2432048   0.2435568   0.0000000), wk =   0.1250000
        k(   14) = (   0.2432048   0.2435568   0.3714741), wk =   0.2500000
        k(   15) = (   0.2432048   0.2435568  -0.7429482), wk =   0.1250000
        k(   16) = (   0.2432048  -0.4871135   0.0000000), wk =   0.0625000
        k(   17) = (   0.2432048  -0.4871135   0.3714741), wk =   0.1250000
        k(   18) = (   0.2432048  -0.4871135  -0.7429482), wk =   0.0625000
        k(   19) = (  -0.4864097   0.0000000   0.0000000), wk =   0.0312500
        k(   20) = (  -0.4864097   0.0000000   0.3714741), wk =   0.0625000
        k(   21) = (  -0.4864097   0.0000000  -0.7429482), wk =   0.0312500
        k(   22) = (  -0.4864097   0.2435568   0.0000000), wk =   0.0625000
        k(   23) = (  -0.4864097   0.2435568   0.3714741), wk =   0.1250000
        k(   24) = (  -0.4864097   0.2435568  -0.7429482), wk =   0.0625000
        k(   25) = (  -0.4864097  -0.4871135   0.0000000), wk =   0.0312500
        k(   26) = (  -0.4864097  -0.4871135   0.3714741), wk =   0.0625000
        k(   27) = (  -0.4864097  -0.4871135  -0.7429482), wk =   0.0312500

     Initial potential from superposition of free atoms

     starting charge      47.9682, renormalised to      48.0000
     Starting wfcs are   42 randomized atomic wfcs

     Self-consistent Calculation

[...]

     total energy              =    -156.47090631 Ry
     estimated scf accuracy    <          6.8E-12 Ry

     iteration # 13     ecut=   100.00 Ry     beta= 0.70
     Davidson diagonalization with overlap
     ethr =  1.00E-13,  avg # of iterations =  1.1

     End of self-consistent calculation

[...]

          k = 0.2432-0.4871-0.7429 ( 26172 PWs)   bands (ev):

[...]

          k =-0.4864-0.4871-0.7429 ( 26160 PWs)   bands (ev):

   -24.4808 -24.4808 -10.1396 -10.1396  -9.7675  -9.7675  -9.7491  -9.7491
    -5.4588  -5.4588  -5.0587  -5.0587  -1.9134  -1.9134  -1.4257  -1.4257
    -0.3604  -0.3604  -0.1697  -0.1697  -0.1339  -0.1339   0.0935   0.0935

     highest occupied level (ev):     0.2103

!    total energy              =    -156.47090631 Ry
     estimated scf accuracy    <          3.5E-13 Ry

     The total energy is the sum of the following terms:
     one-electron contribution =     -31.44764331 Ry
     hartree contribution      =      29.10522763 Ry
     xc contribution           =     -49.06082287 Ry
     ewald contribution        =    -105.06766776 Ry

     convergence has been achieved in  13 iterations

     Forces acting on atoms (cartesian axes, Ry/au):

     atom    1 type  2   force =     0.00000000    0.00000000    0.00000167
     atom    2 type  2   force =     0.00000000    0.00000000   -0.00000167
     atom    3 type  1   force =    -0.00000073    0.00000311   -0.00000427
     atom    4 type  1   force =     0.00000073   -0.00000311   -0.00000427
     atom    5 type  1   force =    -0.00000073   -0.00000311    0.00000427
     atom    6 type  1   force =     0.00000073    0.00000311    0.00000427
     atom    7 type  3   force =     0.00000044   -0.00000119    0.00000792
     atom    8 type  3   force =    -0.00000044    0.00000119    0.00000792
     atom    9 type  3   force =     0.00000044    0.00000119   -0.00000792
     atom   10 type  3   force =    -0.00000044   -0.00000119   -0.00000792
     atom   11 type  3   force =     0.00000055    0.00000083   -0.00000041
     atom   12 type  3   force =    -0.00000055   -0.00000083   -0.00000041
     atom   13 type  3   force =     0.00000055   -0.00000083    0.00000041
     atom   14 type  3   force =    -0.00000055    0.00000083    0.00000041
     atom   15 type  3   force =     0.00000344   -0.00000341   -0.00000396
     atom   16 type  3   force =    -0.00000344    0.00000341   -0.00000396
     atom   17 type  3   force =     0.00000344    0.00000341    0.00000396
     atom   18 type  3   force =    -0.00000344   -0.00000341    0.00000396
     atom   19 type  3   force =     0.00000457   -0.00000144   -0.00000150
     atom   20 type  3   force =    -0.00000457    0.00000144   -0.00000150
     atom   21 type  3   force =     0.00000457    0.00000144    0.00000150
     atom   22 type  3   force =    -0.00000457   -0.00000144    0.00000150

     Total force =     0.000025     Total SCF correction =     0.000000

     Computing stress (Cartesian axis) and pressure

          total   stress  (Ry/bohr**3)                   (kbar)     P=       -7.14
  -0.00004853   0.00000000   0.00000000           -7.14        0.00        0.00
   0.00000000  -0.00004855   0.00000000            0.00       -7.14        0.00
   0.00000000   0.00000000  -0.00004859            0.00        0.00       -7.15

     Writing all to output data dir ./pwscf.save/ :
     XML data file, charge density, pseudopotentials, collected wavefunctions

     General routines

     Parallel routines

   This run was terminated on:  17:51:49   6Aug2024

   JOB DONE.