     Program PWSCF v.7.3.1 starts on  6Aug2024 at 14:42:28

     Waiting for input...
     Reading input from standard input

     Current dimensions of program PWSCF are:
     Max number of different atomic species (ntypx) = 10
     Max number of k-points (npk) =  40000
     Max angular momentum in pseudopotentials (lmaxx) =  4

     R & G space division:  proc/nbgrp/npool/nimage =      24
     Subspace diagonalization in iterative solution of the eigenvalue problem:
     a serial algorithm will be used

     Using Slab Decomposition

     Title:
     volume variation

     bravais-lattice index     =            8
     lattice parameter (alat)  =      13.1633  a.u.
     unit-cell volume          =    1619.6113 (a.u.)^3
     number of atoms/cell      =           22
     number of atomic types    =            3
     number of electrons       =        48.00
     number of Kohn-Sham states=           24
     kinetic-energy cutoff     =     100.0000  Ry
     charge density cutoff     =     800.0000  Ry
     scf convergence threshold =      1.0E-10
     mixing beta               =       0.7000
     number of iterations used =            8  plain     mixing
     energy convergence thresh.=      1.0E-05
     force convergence thresh. =      1.0E-05
     press convergence thresh. =      5.0E-01
     Exchange-correlation= PBESOL
                           (   1   4  10   8   0   0   0)
     nstep                     =          300

     celldm(1)=  13.163273  celldm(2)=   1.025571  celldm(3)=   0.692394
     celldm(4)=   0.000000  celldm(5)=   0.000000  celldm(6)=   0.000000

     crystal axes: (cart. coord. in units of alat)
               a(1) = (   1.000000   0.000000   0.000000 )
               a(2) = (   0.000000   1.025571   0.000000 )
               a(3) = (   0.000000   0.000000   0.692394 )

     reciprocal axes: (cart. coord. in units 2 pi/alat)
               b(1) = (  1.000000  0.000000  0.000000 )
               b(2) = (  0.000000  0.975067  0.000000 )
               b(3) = (  0.000000  0.000000  1.444264 )

     PseudoPot. # 1 for B  read from file:
     /home/mehlhorn/pseudos/b_pbesol_v1.4.uspp.F.UPF
     MD5 check sum: 369b69bef2c3aeed4453bd8b804fd6a8
     Pseudo is Ultrasoft + core correction, Zval =  3.0
     Generated by new atomic code, or converted to UPF format
     Using radial grid of  781 points,  4 beta functions with:
                l(1) =   0
                l(2) =   0
                l(3) =   1
                l(4) =   1
     Q(r) pseudized with  8 coefficients,  rinner =    1.100   1.100   1.100

     PseudoPot. # 2 for Ba read from file:
     /home/mehlhorn/pseudos/Ba.nc.z_10.oncvpsp4.dojo.v4-sp.upf
     MD5 check sum: c10ed334bb677c0554edec7181ce9143
     Pseudo is Norm-conserving + core correction, Zval = 10.0
     Generated using ONCVPSP code by D. R. Hamann
     Using radial grid of 1938 points,  8 beta functions with:
                l(1) =   0
                l(2) =   0
                l(3) =   1
                l(4) =   1
                l(5) =   2
                l(6) =   2
                l(7) =   3
                l(8) =   3

     PseudoPot. # 3 for H  read from file:
     /home/mehlhorn/pseudos/H_ONCV_PBEsol-1.0.upf
     MD5 check sum: 398ef8f67c0a7342c05c87c5e19ea467
     Pseudo is Norm-conserving, Zval =  1.0
     Generated using ONCVPSP code by D. R. Hamann
     Using radial grid of 1180 points,  2 beta functions with:
                l(1) =   0
                l(2) =   0

     atomic species   valence    mass     pseudopotential
     B                 3.00    10.81100     B ( 1.00)
     Ba               10.00   137.32700     Ba( 1.00)
     H                 1.00     1.00794     H ( 1.00)

      4 Sym. Ops. (no inversion) found ( 2 have fractional translation)

   Cartesian axes

     site n.     atom                  positions (alat units)
         1        Ba     tau(   1) = (   0.5000000   0.5127855   0.3462657  )
         2        Ba     tau(   2) = (   0.0000000   0.0000000   0.6923255  )
         3        B      tau(   3) = (   0.6102570   0.2453190   0.0000455  )
         4        B      tau(   4) = (   0.3897430   0.7802519   0.0000455  )
         5        B      tau(   5) = (   0.1102570   0.2674665   0.3461516  )
         6        B      tau(   6) = (   0.8897430   0.7581045   0.3461516  )
         7        H      tau(   7) = (   0.4340973   0.2996264   0.0001599  )
         8        H      tau(   8) = (   0.5659027   0.7259445   0.0001599  )
         9        H      tau(   9) = (   0.9340973   0.2131590   0.3460372  )
        10        H      tau(  10) = (   0.0659027   0.8124119   0.3460372  )
        11        H      tau(  11) = (   0.7220603   0.3933629  -0.0000058  )
        12        H      tau(  12) = (   0.2779397   0.6322081  -0.0000058  )
        13        H      tau(  13) = (   0.2220603   0.1194226   0.3462029  )
        14        H      tau(  14) = (   0.7779397   0.9061483   0.3462029  )
        15        H      tau(  15) = (   0.6392499   0.1457279   0.5404125  )
        16        H      tau(  16) = (   0.3607501   0.8798430   0.5404125  )
        17        H      tau(  17) = (   0.1392499   0.3670576   0.4981787  )
        18        H      tau(  18) = (   0.8607501   0.6585133   0.4981787  )
        19        H      tau(  19) = (   0.3605328   0.8798946   0.1519977  )
        20        H      tau(  20) = (   0.6394672   0.1456763   0.1519977  )
        21        H      tau(  21) = (   0.8605328   0.6584617   0.1941994  )
        22        H      tau(  22) = (   0.1394672   0.3671092   0.1941994  )

     number of k points=    27
                       cart. coord. in units 2pi/alat
        k(    1) = (   0.0000000   0.0000000   0.0000000), wk =   0.0312500
        k(    2) = (   0.0000000   0.0000000   0.3610660), wk =   0.0625000
        k(    3) = (   0.0000000   0.0000000  -0.7221320), wk =   0.0312500
        k(    4) = (   0.0000000   0.2437667   0.0000000), wk =   0.0625000
        k(    5) = (   0.0000000   0.2437667   0.3610660), wk =   0.1250000
        k(    6) = (   0.0000000   0.2437667  -0.7221320), wk =   0.0625000
        k(    7) = (   0.0000000  -0.4875333   0.0000000), wk =   0.0312500
        k(    8) = (   0.0000000  -0.4875333   0.3610660), wk =   0.0625000
        k(    9) = (   0.0000000  -0.4875333  -0.7221320), wk =   0.0312500
        k(   10) = (   0.2500000   0.0000000   0.0000000), wk =   0.0625000
        k(   11) = (   0.2500000   0.0000000   0.3610660), wk =   0.1250000
        k(   12) = (   0.2500000   0.0000000  -0.7221320), wk =   0.0625000
        k(   13) = (   0.2500000   0.2437667   0.0000000), wk =   0.1250000
        k(   14) = (   0.2500000   0.2437667   0.3610660), wk =   0.2500000
        k(   15) = (   0.2500000   0.2437667  -0.7221320), wk =   0.1250000
        k(   16) = (   0.2500000  -0.4875333   0.0000000), wk =   0.0625000
        k(   17) = (   0.2500000  -0.4875333   0.3610660), wk =   0.1250000
        k(   18) = (   0.2500000  -0.4875333  -0.7221320), wk =   0.0625000
        k(   19) = (  -0.5000000   0.0000000   0.0000000), wk =   0.0312500
        k(   20) = (  -0.5000000   0.0000000   0.3610660), wk =   0.0625000
        k(   21) = (  -0.5000000   0.0000000  -0.7221320), wk =   0.0312500
        k(   22) = (  -0.5000000   0.2437667   0.0000000), wk =   0.0625000
        k(   23) = (  -0.5000000   0.2437667   0.3610660), wk =   0.1250000
        k(   24) = (  -0.5000000   0.2437667  -0.7221320), wk =   0.0625000
        k(   25) = (  -0.5000000  -0.4875333   0.0000000), wk =   0.0312500
        k(   26) = (  -0.5000000  -0.4875333   0.3610660), wk =   0.0625000
        k(   27) = (  -0.5000000  -0.4875333  -0.7221320), wk =   0.0312500

     Initial potential from superposition of free atoms

     starting charge      47.9682, renormalised to      48.0000
     Starting wfcs are   42 randomized atomic wfcs

     Self-consistent Calculation

     iteration #  1     ecut=   100.00 Ry     beta= 0.70
     Davidson diagonalization with overlap
     ethr =  1.00E-02,  avg # of iterations =  2.0

     total energy              =    -155.95496861 Ry
     estimated scf accuracy    <       1.81789953 Ry

[...]

     End of self-consistent calculation

          k = 0.0000 0.0000 0.0000 ( 27383 PWs)   bands (ev):

   -25.0104 -25.0060 -10.3477 -10.3008 -10.1880 -10.1681 -10.1310 -10.0943
    -6.3070  -5.4530  -5.0370  -4.8594  -2.0992  -1.3113  -1.2271  -0.8649
    -0.5738  -0.5737  -0.5465  -0.3898  -0.2628   0.0973   0.1362   0.1734

[...]

          k =-0.5000 0.0000 0.0000 ( 27342 PWs)   bands (ev):

[...]

     highest occupied level (ev):     0.1734

!    total energy              =    -156.43019884 Ry
     estimated scf accuracy    <          1.5E-11 Ry

     The total energy is the sum of the following terms:
     one-electron contribution =     -28.23706160 Ry
     hartree contribution      =      26.86923641 Ry
     xc contribution           =     -48.52034258 Ry
     ewald contribution        =    -106.54203107 Ry

     convergence has been achieved in  11 iterations

     Forces acting on atoms (cartesian axes, Ry/au):

     atom    1 type  2   force =     0.00000000    0.00000000    0.00000679
     atom    2 type  2   force =     0.00000000    0.00000000   -0.00000679
     atom    3 type  1   force =     0.00063157    0.00331122   -0.00001714
     atom    4 type  1   force =    -0.00063157   -0.00331122   -0.00001714
     atom    5 type  1   force =     0.00063157   -0.00331122    0.00001714
     atom    6 type  1   force =    -0.00063157    0.00331122    0.00001714
     atom    7 type  3   force =     0.03092791   -0.00791848   -0.00002582
     atom    8 type  3   force =    -0.03092791    0.00791848   -0.00002582
     atom    9 type  3   force =     0.03092791    0.00791848    0.00002582
     atom   10 type  3   force =    -0.03092791   -0.00791848    0.00002582
     atom   11 type  3   force =    -0.02041779   -0.02479659    0.00001082
     atom   12 type  3   force =     0.02041779    0.02479659    0.00001082
     atom   13 type  3   force =    -0.02041779    0.02479659   -0.00001082
     atom   14 type  3   force =     0.02041779   -0.02479659   -0.00001082
     atom   15 type  3   force =    -0.00388322    0.01819966    0.02763172
     atom   16 type  3   force =     0.00388322   -0.01819966    0.02763172
     atom   17 type  3   force =    -0.00388322   -0.01819966   -0.02763172
     atom   18 type  3   force =     0.00388322    0.01819966   -0.02763172
     atom   19 type  3   force =     0.00395390   -0.01822032   -0.02763194
     atom   20 type  3   force =    -0.00395390    0.01822032   -0.02763194
     atom   21 type  3   force =     0.00395390    0.01822032    0.02763194
     atom   22 type  3   force =    -0.00395390   -0.01822032    0.02763194

     Total force =     0.130894     Total SCF correction =     0.000002

     Computing stress (Cartesian axis) and pressure

          total   stress  (Ry/bohr**3)                   (kbar)     P=      -62.21
  -0.00039472   0.00000000   0.00000000          -58.07        0.00        0.00
   0.00000000  -0.00040205   0.00000000            0.00      -59.14        0.00
[...]
     1.04461799     0.00000000     0.00000000
     0.00000000     1.03290999     0.00000000
     0.00000000     0.00000000     0.65811095
New lattice vectors in INITIAL alat:
     1.04461799     0.00000000     0.00000000
     0.00000000     1.03290999     0.00000000
     0.00000000     0.00000000     0.65811095
New lattice vectors in NEW alat (for information only):
     1.00000000     0.00000000     0.00000000
     0.00000000     0.98879207     0.00000000
     0.00000000     0.00000000     0.63000154
Discrepancy in bohr =     0.000000    0.000000    0.000000
     new conv_thr            =            1.0E-12 Ry

     new unit-cell volume =   1619.61128 a.u.^3 (   240.00163 Ang^3 )
     density =      2.31107 g/cm^3

[...]

ATOMIC_POSITIONS (crystal)
Ba               0.5000000000        0.5000000000        0.5000209318
Ba               0.0000000000        0.0000000000        0.9999790682
B                0.6457471943        0.2720828799        0.0000175716
B                0.3542528057        0.7279171201        0.0000175716
B                0.1457471943        0.2279171201        0.4999824284
B                0.8542528057        0.7720828799        0.4999824284
H                0.4764410567        0.2817065909        0.0000207205
H                0.5235589433        0.7182934091        0.0000207205
H                0.9764410567        0.2182934091        0.4999792795
H                0.0235589433        0.7817065909        0.4999792795
H                0.7125446937        0.4301287676        0.0000160564
H                0.2874553063        0.5698712324        0.0000160564
H                0.2125446937        0.0698712324        0.4999839436
H                0.7874553063        0.9301287676        0.4999839436
H                0.6936781081        0.1900978094        0.7772011228
H                0.3063218919        0.8099021906        0.7772011228
H                0.1936781081        0.3099021906        0.7227988772
H                0.8063218919        0.6900978094        0.7227988772
H                0.3063087259        0.8098986203        0.2228294361
H                0.6936912741        0.1901013797        0.2228294361
H                0.8063087259        0.6901013797        0.2771705639
H                0.1936912741        0.3098986203        0.2771705639

     Writing config-only to output data dir ./pwscf.save/ :
     XML data file
     NEW-OLD atomic charge density approx. for the potential

[...]

     Threshold (ethr) on eigenvalues was too large:
     Diagonalizing with lowered threshold

     Davidson diagonalization with overlap
     ethr =  2.20E-11,  avg # of iterations =  4.4

[...]

     Volume is kept fixed: isostatic pressure set to zero
     Energy error            =      8.7E-09 Ry
     Gradient error          =      4.2E-06 Ry/Bohr
     Cell gradient error     =      1.4E-03 kbar
ibrav =      8
 celldm(1) =     13.75059216
 celldm(2) =      0.98879207
 celldm(3) =      0.63000154
Input lattice vectors:
     1.04461799     0.00000000     0.00000000
     0.00000000     1.03290999     0.00000000
     0.00000000     0.00000000     0.65811095
New lattice vectors in INITIAL alat:
     1.04461799     0.00000000     0.00000000
     0.00000000     1.03290999     0.00000000
     0.00000000     0.00000000     0.65811095
New lattice vectors in NEW alat (for information only):
     1.00000000     0.00000000     0.00000000
     0.00000000     0.98879207     0.00000000
     0.00000000     0.00000000     0.63000154
Discrepancy in bohr =     0.000000    0.000000    0.000000

     bfgs converged in  67 scf cycles and  66 bfgs steps
     (criteria: energy <  1.0E-05 Ry, force <  1.0E-05 Ry/Bohr, cell <  5.0E-01 kbar)

     End of BFGS Geometry Optimization

     Final enthalpy           =    -156.4677661302 Ry

     File ./pwscf.bfgs deleted, as requested
Begin final coordinates
     new unit-cell volume =   1619.61128 a.u.^3 (   240.00163 Ang^3 )
     density =      2.31107 g/cm^3

CELL_PARAMETERS (alat= 13.16327332)
   1.044617994   0.000000000   0.000000000
   0.000000000   1.032909987   0.000000000
   0.000000000   0.000000000   0.658110950

ATOMIC_POSITIONS (crystal)
Ba               0.5000000000        0.5000000000        0.5000209318
Ba               0.0000000000        0.0000000000        0.9999790682
B                0.6457471943        0.2720828799        0.0000175716
B                0.3542528057        0.7279171201        0.0000175716
B                0.1457471943        0.2279171201        0.4999824284
B                0.8542528057        0.7720828799        0.4999824284
H                0.4764410567        0.2817065909        0.0000207205
H                0.5235589433        0.7182934091        0.0000207205
H                0.9764410567        0.2182934091        0.4999792795
H                0.0235589433        0.7817065909        0.4999792795
H                0.7125446937        0.4301287676        0.0000160564
H                0.2874553063        0.5698712324        0.0000160564
H                0.2125446937        0.0698712324        0.4999839436
H                0.7874553063        0.9301287676        0.4999839436
H                0.6936781081        0.1900978094        0.7772011228
H                0.3063218919        0.8099021906        0.7772011228
H                0.1936781081        0.3099021906        0.7227988772
H                0.8063218919        0.6900978094        0.7227988772
H                0.3063087259        0.8098986203        0.2228294361
H                0.6936912741        0.1901013797        0.2228294361
H                0.8063087259        0.6901013797        0.2771705639
H                0.1936912741        0.3098986203        0.2771705639
End final coordinates

     Writing config-only to output data dir ./pwscf.save/ :
     XML data file

     Final scf calculation at the relaxed structure.
     The G-vectors are recalculated for the final unit cell
     Results may differ from those at the preceding step.

     Using Slab Decomposition

     Title:
     volume variation

     bravais-lattice index     =            8
     lattice parameter (alat)  =      13.1633  a.u.
     unit-cell volume          =    1619.6113 (a.u.)^3
     number of atoms/cell      =           22
     number of atomic types    =            3
     number of electrons       =        48.00
     number of Kohn-Sham states=           24
     kinetic-energy cutoff     =     100.0000  Ry
     charge density cutoff     =     800.0000  Ry
     scf convergence threshold =      1.0E-12
     mixing beta               =       0.7000
     number of iterations used =            8  plain     mixing
     press convergence thresh. =      5.0E-01
     Exchange-correlation= PBESOL
                           (   1   4  10   8   0   0   0)

     celldm(1)=  13.163273  celldm(2)=   1.025571  celldm(3)=   0.692394
     celldm(4)=   0.000000  celldm(5)=   0.000000  celldm(6)=   0.000000

     crystal axes: (cart. coord. in units of alat)
               a(1) = (   1.044618   0.000000   0.000000 )
               a(2) = (   0.000000   1.032910   0.000000 )
               a(3) = (   0.000000   0.000000   0.658111 )

     reciprocal axes: (cart. coord. in units 2 pi/alat)
               b(1) = (  0.957288  0.000000  0.000000 )
               b(2) = (  0.000000  0.968139  0.000000 )
               b(3) = (  0.000000  0.000000  1.519501 )

     PseudoPot. # 1 for B  read from file:
     /home/mehlhorn/pseudos/b_pbesol_v1.4.uspp.F.UPF
     MD5 check sum: 369b69bef2c3aeed4453bd8b804fd6a8
     Pseudo is Ultrasoft + core correction, Zval =  3.0
     Generated by new atomic code, or converted to UPF format
     Using radial grid of  781 points,  4 beta functions with:
                l(1) =   0
                l(2) =   0
                l(3) =   1
                l(4) =   1
     Q(r) pseudized with  8 coefficients,  rinner =    1.100   1.100   1.100

     PseudoPot. # 2 for Ba read from file:
     /home/mehlhorn/pseudos/Ba.nc.z_10.oncvpsp4.dojo.v4-sp.upf
     MD5 check sum: c10ed334bb677c0554edec7181ce9143
     Pseudo is Norm-conserving + core correction, Zval = 10.0
     Generated using ONCVPSP code by D. R. Hamann
     Using radial grid of 1938 points,  8 beta functions with:
                l(1) =   0
                l(2) =   0
                l(3) =   1
                l(4) =   1
                l(5) =   2
                l(6) =   2
                l(7) =   3
                l(8) =   3

     PseudoPot. # 3 for H  read from file:
     /home/mehlhorn/pseudos/H_ONCV_PBEsol-1.0.upf
     MD5 check sum: 398ef8f67c0a7342c05c87c5e19ea467
     Pseudo is Norm-conserving, Zval =  1.0
     Generated using ONCVPSP code by D. R. Hamann
     Using radial grid of 1180 points,  2 beta functions with:
                l(1) =   0
                l(2) =   0

     atomic species   valence    mass     pseudopotential
     B                 3.00    10.81100     B ( 1.00)
     Ba               10.00   137.32700     Ba( 1.00)
     H                 1.00     1.00794     H ( 1.00)

      4 Sym. Ops. (no inversion) found ( 2 have fractional translation)

   Cartesian axes

     site n.     atom                  positions (alat units)
         1        Ba     tau(   1) = (   0.5223090   0.5164550   0.3290693  )
         2        Ba     tau(   2) = (   0.0000000   0.0000000   0.6580972  )
         3        B      tau(   3) = (   0.6745591   0.2810371   0.0000116  )
         4        B      tau(   4) = (   0.3700589   0.7518729   0.0000116  )
         5        B      tau(   5) = (   0.1522501   0.2354179   0.3290439  )
         6        B      tau(   6) = (   0.8923679   0.7974921   0.3290439  )
         7        H      tau(   7) = (   0.4976989   0.2909776   0.0000136  )
         8        H      tau(   8) = (   0.5469191   0.7419324   0.0000136  )
         9        H      tau(   9) = (   1.0200079   0.2254774   0.3290418  )
        10        H      tau(  10) = (   0.0246101   0.8074325   0.3290418  )
        11        H      tau(  11) = (   0.7443370   0.4442843   0.0000106  )
        12        H      tau(  12) = (   0.3002810   0.5886257   0.0000106  )
        13        H      tau(  13) = (   0.2220280   0.0721707   0.3290449  )
        14        H      tau(  14) = (   0.8225900   0.9607393   0.3290449  )
        15        H      tau(  15) = (   0.7246286   0.1963539   0.5114846  )
        16        H      tau(  16) = (   0.3199894   0.8365561   0.5114846  )
        17        H      tau(  17) = (   0.2023196   0.3201011   0.4756819  )
        18        H      tau(  18) = (   0.8422984   0.7128089   0.4756819  )
        19        H      tau(  19) = (   0.3199756   0.8365524   0.1466465  )
        20        H      tau(  20) = (   0.7246424   0.1963576   0.1466465  )
        21        H      tau(  21) = (   0.8422846   0.7128126   0.1824090  )
        22        H      tau(  22) = (   0.2023334   0.3200974   0.1824090  )

     number of k points=    27
                       cart. coord. in units 2pi/alat
        k(    1) = (   0.0000000   0.0000000   0.0000000), wk =   0.0312500
        k(    2) = (   0.0000000   0.0000000   0.3798752), wk =   0.0625000
        k(    3) = (   0.0000000   0.0000000  -0.7597503), wk =   0.0312500
        k(    4) = (   0.0000000   0.2420346   0.0000000), wk =   0.0625000
        k(    5) = (   0.0000000   0.2420346   0.3798752), wk =   0.1250000
        k(    6) = (   0.0000000   0.2420346  -0.7597503), wk =   0.0625000
        k(    7) = (   0.0000000  -0.4840693   0.0000000), wk =   0.0312500
        k(    8) = (   0.0000000  -0.4840693   0.3798752), wk =   0.0625000
        k(    9) = (   0.0000000  -0.4840693  -0.7597503), wk =   0.0312500
        k(   10) = (   0.2393219   0.0000000   0.0000000), wk =   0.0625000
        k(   11) = (   0.2393219   0.0000000   0.3798752), wk =   0.1250000
        k(   12) = (   0.2393219   0.0000000  -0.7597503), wk =   0.0625000
        k(   13) = (   0.2393219   0.2420346   0.0000000), wk =   0.1250000
        k(   14) = (   0.2393219   0.2420346   0.3798752), wk =   0.2500000
        k(   15) = (   0.2393219   0.2420346  -0.7597503), wk =   0.1250000
        k(   16) = (   0.2393219  -0.4840693   0.0000000), wk =   0.0625000
        k(   17) = (   0.2393219  -0.4840693   0.3798752), wk =   0.1250000
        k(   18) = (   0.2393219  -0.4840693  -0.7597503), wk =   0.0625000
        k(   19) = (  -0.4786439   0.0000000   0.0000000), wk =   0.0312500
        k(   20) = (  -0.4786439   0.0000000   0.3798752), wk =   0.0625000
        k(   21) = (  -0.4786439   0.0000000  -0.7597503), wk =   0.0312500
        k(   22) = (  -0.4786439   0.2420346   0.0000000), wk =   0.0625000
        k(   23) = (  -0.4786439   0.2420346   0.3798752), wk =   0.1250000
        k(   24) = (  -0.4786439   0.2420346  -0.7597503), wk =   0.0625000
        k(   25) = (  -0.4786439  -0.4840693   0.0000000), wk =   0.0312500
        k(   26) = (  -0.4786439  -0.4840693   0.3798752), wk =   0.0625000
        k(   27) = (  -0.4786439  -0.4840693  -0.7597503), wk =   0.0312500

     Initial potential from superposition of free atoms

     starting charge      47.9682, renormalised to      48.0000
     Starting wfcs are   42 randomized atomic wfcs

     Self-consistent Calculation

[...]

     total energy              =    -156.46776941 Ry
     estimated scf accuracy    <          1.2E-12 Ry

     iteration # 13     ecut=   100.00 Ry     beta= 0.70
     Davidson diagonalization with overlap
     ethr =  1.00E-13,  avg # of iterations =  1.0

     End of self-consistent calculation

[...]

          k = 0.2393-0.4841-0.7598 ( 27324 PWs)   bands (ev):

[...]

          k =-0.4786-0.4841-0.7598 ( 27376 PWs)   bands (ev):

   -24.8008 -24.8008 -10.4846 -10.4846 -10.0801 -10.0801 -10.0727 -10.0727
    -5.7769  -5.7769  -5.3985  -5.3985  -2.2100  -2.2100  -1.8278  -1.8278
    -0.6907  -0.6907  -0.5197  -0.5197  -0.4295  -0.4295  -0.2574  -0.2574

     highest occupied level (ev):    -0.1137

!    total energy              =    -156.46776941 Ry
     estimated scf accuracy    <          6.6E-14 Ry

     The total energy is the sum of the following terms:
     one-electron contribution =     -39.16439423 Ry
     hartree contribution      =      32.38288910 Ry
     xc contribution           =     -49.06682442 Ry
     ewald contribution        =    -100.61943985 Ry

     convergence has been achieved in  13 iterations

     Forces acting on atoms (cartesian axes, Ry/au):

     atom    1 type  2   force =     0.00000000    0.00000000   -0.00000420
     atom    2 type  2   force =     0.00000000    0.00000000    0.00000420
     atom    3 type  1   force =    -0.00000348    0.00000436   -0.00000153
     atom    4 type  1   force =     0.00000348   -0.00000436   -0.00000153
     atom    5 type  1   force =    -0.00000348   -0.00000436    0.00000153
     atom    6 type  1   force =     0.00000348    0.00000436    0.00000153
     atom    7 type  3   force =     0.00000304   -0.00000149    0.00000246
     atom    8 type  3   force =    -0.00000304    0.00000149    0.00000246
     atom    9 type  3   force =     0.00000304    0.00000149   -0.00000246
     atom   10 type  3   force =    -0.00000304   -0.00000149   -0.00000246
     atom   11 type  3   force =    -0.00000121   -0.00000184   -0.00000335
     atom   12 type  3   force =     0.00000121    0.00000184   -0.00000335
     atom   13 type  3   force =    -0.00000121    0.00000184    0.00000335
     atom   14 type  3   force =     0.00000121   -0.00000184    0.00000335
     atom   15 type  3   force =     0.00000340   -0.00000036   -0.00000112
     atom   16 type  3   force =    -0.00000340    0.00000036   -0.00000112
     atom   17 type  3   force =     0.00000340    0.00000036    0.00000112
     atom   18 type  3   force =    -0.00000340   -0.00000036    0.00000112
     atom   19 type  3   force =     0.00000269    0.00000308   -0.00000037
     atom   20 type  3   force =    -0.00000269   -0.00000308   -0.00000037
     atom   21 type  3   force =     0.00000269   -0.00000308    0.00000037
     atom   22 type  3   force =    -0.00000269    0.00000308    0.00000037

     Total force =     0.000021     Total SCF correction =     0.000000

     Computing stress (Cartesian axis) and pressure

          total   stress  (Ry/bohr**3)                   (kbar)     P=       -5.51
  -0.00003741   0.00000000   0.00000000           -5.50        0.00        0.00
   0.00000000  -0.00003746   0.00000000            0.00       -5.51        0.00
   0.00000000   0.00000000  -0.00003751            0.00        0.00       -5.52

     Writing all to output data dir ./pwscf.save/ :
     XML data file, charge density, pseudopotentials, collected wavefunctions

     General routines

     Parallel routines

   This run was terminated on:  18:36: 9   6Aug2024

   JOB DONE.