     Program PWSCF v.7.3.1 starts on 11Jul2024 at 15:30:39

     Waiting for input...
     Reading input from standard input

     Current dimensions of program PWSCF are:
     Max number of different atomic species (ntypx) = 10
     Max number of k-points (npk) =  40000
     Max angular momentum in pseudopotentials (lmaxx) =  4

     R & G space division:  proc/nbgrp/npool/nimage =      24
     Subspace diagonalization in iterative solution of the eigenvalue problem:
     a serial algorithm will be used

     Using Slab Decomposition

     Title:
     volume variation

     bravais-lattice index     =            8
     lattice parameter (alat)  =      12.4270  a.u.
     unit-cell volume          =    1362.7566 (a.u.)^3
     number of atoms/cell      =           22
     number of atomic types    =            3
     number of electrons       =        48.00
     number of Kohn-Sham states=           24
     kinetic-energy cutoff     =     100.0000  Ry
     charge density cutoff     =     800.0000  Ry
     scf convergence threshold =      1.0E-10
     mixing beta               =       0.7000
     number of iterations used =            8  plain     mixing
     energy convergence thresh.=      1.0E-05
     force convergence thresh. =      1.0E-05
     press convergence thresh. =      5.0E-01
     Exchange-correlation= PBESOL
                           (   1   4  10   8   0   0   0)
     nstep                     =          100

     celldm(1)=  12.427003  celldm(2)=   1.025571  celldm(3)=   0.692394
     celldm(4)=   0.000000  celldm(5)=   0.000000  celldm(6)=   0.000000

     crystal axes: (cart. coord. in units of alat)
               a(1) = (   1.000000   0.000000   0.000000 )
               a(2) = (   0.000000   1.025571   0.000000 )
               a(3) = (   0.000000   0.000000   0.692394 )

     reciprocal axes: (cart. coord. in units 2 pi/alat)
               b(1) = (  1.000000  0.000000  0.000000 )
               b(2) = (  0.000000  0.975067  0.000000 )
               b(3) = (  0.000000  0.000000  1.444264 )

     PseudoPot. # 1 for B  read from file:
     /home/mehlhorn/pseudos/b_pbesol_v1.4.uspp.F.UPF
     MD5 check sum: 369b69bef2c3aeed4453bd8b804fd6a8
     Pseudo is Ultrasoft + core correction, Zval =  3.0
     Generated by new atomic code, or converted to UPF format
     Using radial grid of  781 points,  4 beta functions with:
                l(1) =   0
                l(2) =   0
                l(3) =   1
                l(4) =   1
     Q(r) pseudized with  8 coefficients,  rinner =    1.100   1.100   1.100

     PseudoPot. # 2 for Ba read from file:
     /home/mehlhorn/pseudos/Ba.nc.z_10.oncvpsp4.dojo.v4-sp.upf
     MD5 check sum: c10ed334bb677c0554edec7181ce9143
     Pseudo is Norm-conserving + core correction, Zval = 10.0
     Generated using ONCVPSP code by D. R. Hamann
     Using radial grid of 1938 points,  8 beta functions with:
                l(1) =   0
                l(2) =   0
                l(3) =   1
                l(4) =   1
                l(5) =   2
                l(6) =   2
                l(7) =   3
                l(8) =   3

     PseudoPot. # 3 for H  read from file:
     /home/mehlhorn/pseudos/H_ONCV_PBEsol-1.0.upf
     MD5 check sum: 398ef8f67c0a7342c05c87c5e19ea467
     Pseudo is Norm-conserving, Zval =  1.0
     Generated using ONCVPSP code by D. R. Hamann
     Using radial grid of 1180 points,  2 beta functions with:
                l(1) =   0
                l(2) =   0

     atomic species   valence    mass     pseudopotential
     B                 3.00    10.81100     B ( 1.00)
     Ba               10.00   137.32700     Ba( 1.00)
     H                 1.00     1.00794     H ( 1.00)

      4 Sym. Ops. (no inversion) found ( 2 have fractional translation)

   Cartesian axes

     site n.     atom                  positions (alat units)
         1        Ba     tau(   1) = (   0.5000000   0.5127855   0.3462657  )
         2        Ba     tau(   2) = (   0.0000000   0.0000000   0.6923255  )
         3        B      tau(   3) = (   0.6102570   0.2453190   0.0000455  )
         4        B      tau(   4) = (   0.3897430   0.7802519   0.0000455  )
         5        B      tau(   5) = (   0.1102570   0.2674665   0.3461516  )
         6        B      tau(   6) = (   0.8897430   0.7581045   0.3461516  )
         7        H      tau(   7) = (   0.4340973   0.2996264   0.0001599  )
         8        H      tau(   8) = (   0.5659027   0.7259445   0.0001599  )
         9        H      tau(   9) = (   0.9340973   0.2131590   0.3460372  )
        10        H      tau(  10) = (   0.0659027   0.8124119   0.3460372  )
        11        H      tau(  11) = (   0.7220603   0.3933629  -0.0000058  )
        12        H      tau(  12) = (   0.2779397   0.6322081  -0.0000058  )
        13        H      tau(  13) = (   0.2220603   0.1194226   0.3462029  )
        14        H      tau(  14) = (   0.7779397   0.9061483   0.3462029  )
        15        H      tau(  15) = (   0.6392499   0.1457279   0.5404125  )
        16        H      tau(  16) = (   0.3607501   0.8798430   0.5404125  )
        17        H      tau(  17) = (   0.1392499   0.3670576   0.4981787  )
        18        H      tau(  18) = (   0.8607501   0.6585133   0.4981787  )
        19        H      tau(  19) = (   0.3605328   0.8798946   0.1519977  )
        20        H      tau(  20) = (   0.6394672   0.1456763   0.1519977  )
        21        H      tau(  21) = (   0.8605328   0.6584617   0.1941994  )
        22        H      tau(  22) = (   0.1394672   0.3671092   0.1941994  )

     number of k points=    27
                       cart. coord. in units 2pi/alat
        k(    1) = (   0.0000000   0.0000000   0.0000000), wk =   0.0312500
        k(    2) = (   0.0000000   0.0000000   0.3610660), wk =   0.0625000
        k(    3) = (   0.0000000   0.0000000  -0.7221320), wk =   0.0312500
        k(    4) = (   0.0000000   0.2437667   0.0000000), wk =   0.0625000
        k(    5) = (   0.0000000   0.2437667   0.3610660), wk =   0.1250000
        k(    6) = (   0.0000000   0.2437667  -0.7221320), wk =   0.0625000
        k(    7) = (   0.0000000  -0.4875333   0.0000000), wk =   0.0312500
        k(    8) = (   0.0000000  -0.4875333   0.3610660), wk =   0.0625000
        k(    9) = (   0.0000000  -0.4875333  -0.7221320), wk =   0.0312500
        k(   10) = (   0.2500000   0.0000000   0.0000000), wk =   0.0625000
        k(   11) = (   0.2500000   0.0000000   0.3610660), wk =   0.1250000
        k(   12) = (   0.2500000   0.0000000  -0.7221320), wk =   0.0625000
        k(   13) = (   0.2500000   0.2437667   0.0000000), wk =   0.1250000
        k(   14) = (   0.2500000   0.2437667   0.3610660), wk =   0.2500000
        k(   15) = (   0.2500000   0.2437667  -0.7221320), wk =   0.1250000
        k(   16) = (   0.2500000  -0.4875333   0.0000000), wk =   0.0625000
        k(   17) = (   0.2500000  -0.4875333   0.3610660), wk =   0.1250000
        k(   18) = (   0.2500000  -0.4875333  -0.7221320), wk =   0.0625000
        k(   19) = (  -0.5000000   0.0000000   0.0000000), wk =   0.0312500
        k(   20) = (  -0.5000000   0.0000000   0.3610660), wk =   0.0625000
        k(   21) = (  -0.5000000   0.0000000  -0.7221320), wk =   0.0312500
        k(   22) = (  -0.5000000   0.2437667   0.0000000), wk =   0.0625000
        k(   23) = (  -0.5000000   0.2437667   0.3610660), wk =   0.1250000
        k(   24) = (  -0.5000000   0.2437667  -0.7221320), wk =   0.0625000
        k(   25) = (  -0.5000000  -0.4875333   0.0000000), wk =   0.0312500
        k(   26) = (  -0.5000000  -0.4875333   0.3610660), wk =   0.0625000
        k(   27) = (  -0.5000000  -0.4875333  -0.7221320), wk =   0.0312500

     Initial potential from superposition of free atoms

     starting charge      47.9682, renormalised to      48.0000
     Starting wfcs are   42 randomized atomic wfcs

     Self-consistent Calculation

     iteration #  1     ecut=   100.00 Ry     beta= 0.70
     Davidson diagonalization with overlap
     ethr =  1.00E-02,  avg # of iterations =  2.0

     total energy              =    -155.89248322 Ry
     estimated scf accuracy    <       2.19525611 Ry

[...]

     End of self-consistent calculation

          k = 0.0000 0.0000 0.0000 ( 23005 PWs)   bands (ev):

   -23.3098 -23.2971  -8.9950  -8.8789  -8.6222  -8.5701  -8.5451  -8.4617
    -5.8454  -4.8358  -3.9779  -3.8521  -1.5161  -0.5759  -0.4188  -0.1277
     0.2863   0.3301   0.4058   0.4890   0.6752   1.1192   1.1226   1.1676

[...]

          k =-0.5000 0.0000 0.0000 ( 23064 PWs)   bands (ev):

[...]

     highest occupied level (ev):     1.1887

!    total energy              =    -156.46841702 Ry
     estimated scf accuracy    <          5.6E-11 Ry

     The total energy is the sum of the following terms:
     one-electron contribution =     -18.92549560 Ry
     hartree contribution      =      24.69608958 Ry
     xc contribution           =     -49.38461860 Ry
     ewald contribution        =    -112.85439240 Ry

     convergence has been achieved in  11 iterations

     Forces acting on atoms (cartesian axes, Ry/au):

     atom    1 type  2   force =     0.00000000    0.00000000    0.00001589
     atom    2 type  2   force =     0.00000000    0.00000000   -0.00001589
     atom    3 type  1   force =    -0.00033105   -0.00157987   -0.00001066
     atom    4 type  1   force =     0.00033105    0.00157987   -0.00001066
     atom    5 type  1   force =    -0.00033105    0.00157987    0.00001066
     atom    6 type  1   force =     0.00033105   -0.00157987    0.00001066
     atom    7 type  3   force =    -0.01288321    0.00323390   -0.00001276
     atom    8 type  3   force =     0.01288321   -0.00323390   -0.00001276
     atom    9 type  3   force =    -0.01288321   -0.00323390    0.00001276
     atom   10 type  3   force =     0.01288321    0.00323390    0.00001276
     atom   11 type  3   force =     0.00851302    0.01026434    0.00000352
     atom   12 type  3   force =    -0.00851302   -0.01026434    0.00000352
     atom   13 type  3   force =     0.00851302   -0.01026434   -0.00000352
     atom   14 type  3   force =    -0.00851302    0.01026434   -0.00000352
     atom   15 type  3   force =     0.00159716   -0.00757501   -0.01148865
     atom   16 type  3   force =    -0.00159716    0.00757501   -0.01148865
     atom   17 type  3   force =     0.00159716    0.00757501    0.01148865
     atom   18 type  3   force =    -0.00159716   -0.00757501    0.01148865
     atom   19 type  3   force =    -0.00156048    0.00755583    0.01147530
     atom   20 type  3   force =     0.00156048   -0.00755583    0.01147530
     atom   21 type  3   force =    -0.00156048   -0.00755583   -0.01147530
     atom   22 type  3   force =     0.00156048    0.00755583   -0.01147530

     Total force =     0.054406     Total SCF correction =     0.000004

     Computing stress (Cartesian axis) and pressure

          total   stress  (Ry/bohr**3)                   (kbar)     P=       30.44
   0.00019201   0.00000000   0.00000000           28.25        0.00        0.00
   0.00000000   0.00019612   0.00000000            0.00       28.85        0.00
[...]
     0.98868888     0.00000000     0.00000000
     0.00000000     1.02760242     0.00000000
     0.00000000     0.00000000     0.69893103
New lattice vectors in INITIAL alat:
     0.98868888     0.00000000     0.00000000
     0.00000000     1.02760242     0.00000000
     0.00000000     0.00000000     0.69893103
New lattice vectors in NEW alat (for information only):
     1.00000000     0.00000000     0.00000000
     0.00000000     1.03935873     0.00000000
     0.00000000     0.00000000     0.70692717
Discrepancy in bohr =     0.000000    0.000000    0.000000
     new conv_thr            =            1.0E-12 Ry

     new unit-cell volume =   1362.75663 a.u.^3 (   201.93970 Ang^3 )
     density =      2.74667 g/cm^3

[...]

ATOMIC_POSITIONS (crystal)
Ba               0.5000000000        0.5000000000        0.5000025923
Ba               0.0000000000        0.0000000000        0.9999974077
B                0.6040143544        0.2353301065       -0.0000011098
B                0.3959856456        0.7646698935       -0.0000011098
B                0.1040143544        0.2646698935        0.5000011098
B                0.8959856456        0.7353301065        0.5000011098
H                0.4248857459        0.2935233495       -0.0000090305
H                0.5751142541        0.7064766505       -0.0000090305
H                0.9248857459        0.2064766505        0.5000090305
H                0.0751142541        0.7935233495        0.5000090305
H                0.7229357194        0.3785872606        0.0000189009
H                0.2770642806        0.6214127394        0.0000189009
H                0.2229357194        0.1214127394        0.4999810991
H                0.7770642806        0.8785872606        0.4999810991
H                0.6313935697        0.1364160732        0.7793577063
H                0.3686064303        0.8635839268        0.7793577063
H                0.1313935697        0.3635839268        0.7206422937
H                0.8686064303        0.6364160732        0.7206422937
H                0.3686258472        0.8635798222        0.2206459708
H                0.6313741528        0.1364201778        0.2206459708
H                0.8686258472        0.6364201778        0.2793540292
H                0.1313741528        0.3635798222        0.2793540292

     Writing config-only to output data dir ./pwscf.save/ :
     XML data file
     NEW-OLD atomic charge density approx. for the potential

[...]

     Threshold (ethr) on eigenvalues was too large:
     Diagonalizing with lowered threshold

     Davidson diagonalization with overlap
     ethr =  5.08E-12,  avg # of iterations =  4.5

[...]

     Volume is kept fixed: isostatic pressure set to zero
     Energy error            =      3.8E-09 Ry
     Gradient error          =      7.9E-06 Ry/Bohr
     Cell gradient error     =      8.2E-04 kbar
ibrav =      8
 celldm(1) =     12.28643971
 celldm(2) =      1.03935873
 celldm(3) =      0.70692717
Input lattice vectors:
     0.98868888     0.00000000     0.00000000
     0.00000000     1.02760242     0.00000000
     0.00000000     0.00000000     0.69893103
New lattice vectors in INITIAL alat:
     0.98868888     0.00000000     0.00000000
     0.00000000     1.02760242     0.00000000
     0.00000000     0.00000000     0.69893103
New lattice vectors in NEW alat (for information only):
     1.00000000     0.00000000     0.00000000
     0.00000000     1.03935873     0.00000000
     0.00000000     0.00000000     0.70692717
Discrepancy in bohr =     0.000000    0.000000    0.000000

     bfgs converged in  54 scf cycles and  53 bfgs steps
     (criteria: energy <  1.0E-05 Ry, force <  1.0E-05 Ry/Bohr, cell <  5.0E-01 kbar)

     End of BFGS Geometry Optimization

     Final enthalpy           =    -156.4728759009 Ry

     File ./pwscf.bfgs deleted, as requested
Begin final coordinates
     new unit-cell volume =   1362.75663 a.u.^3 (   201.93970 Ang^3 )
     density =      2.74667 g/cm^3

CELL_PARAMETERS (alat= 12.42700298)
   0.988688884   0.000000000   0.000000000
   0.000000000   1.027602422   0.000000000
   0.000000000   0.000000000   0.698931034

ATOMIC_POSITIONS (crystal)
Ba               0.5000000000        0.5000000000        0.5000025923
Ba               0.0000000000        0.0000000000        0.9999974077
B                0.6040143544        0.2353301065       -0.0000011098
B                0.3959856456        0.7646698935       -0.0000011098
B                0.1040143544        0.2646698935        0.5000011098
B                0.8959856456        0.7353301065        0.5000011098
H                0.4248857459        0.2935233495       -0.0000090305
H                0.5751142541        0.7064766505       -0.0000090305
H                0.9248857459        0.2064766505        0.5000090305
H                0.0751142541        0.7935233495        0.5000090305
H                0.7229357194        0.3785872606        0.0000189009
H                0.2770642806        0.6214127394        0.0000189009
H                0.2229357194        0.1214127394        0.4999810991
H                0.7770642806        0.8785872606        0.4999810991
H                0.6313935697        0.1364160732        0.7793577063
H                0.3686064303        0.8635839268        0.7793577063
H                0.1313935697        0.3635839268        0.7206422937
H                0.8686064303        0.6364160732        0.7206422937
H                0.3686258472        0.8635798222        0.2206459708
H                0.6313741528        0.1364201778        0.2206459708
H                0.8686258472        0.6364201778        0.2793540292
H                0.1313741528        0.3635798222        0.2793540292
End final coordinates

     Writing config-only to output data dir ./pwscf.save/ :
     XML data file

     Final scf calculation at the relaxed structure.
     The G-vectors are recalculated for the final unit cell
     Results may differ from those at the preceding step.

     Using Slab Decomposition

     Title:
     volume variation

     bravais-lattice index     =            8
     lattice parameter (alat)  =      12.4270  a.u.
     unit-cell volume          =    1362.7566 (a.u.)^3
     number of atoms/cell      =           22
     number of atomic types    =            3
     number of electrons       =        48.00
     number of Kohn-Sham states=           24
     kinetic-energy cutoff     =     100.0000  Ry
     charge density cutoff     =     800.0000  Ry
     scf convergence threshold =      1.0E-12
     mixing beta               =       0.7000
     number of iterations used =            8  plain     mixing
     press convergence thresh. =      5.0E-01
     Exchange-correlation= PBESOL
                           (   1   4  10   8   0   0   0)

     celldm(1)=  12.427003  celldm(2)=   1.025571  celldm(3)=   0.692394
     celldm(4)=   0.000000  celldm(5)=   0.000000  celldm(6)=   0.000000

     crystal axes: (cart. coord. in units of alat)
               a(1) = (   0.988689   0.000000   0.000000 )
               a(2) = (   0.000000   1.027602   0.000000 )
               a(3) = (   0.000000   0.000000   0.698931 )

     reciprocal axes: (cart. coord. in units 2 pi/alat)
               b(1) = (  1.011441  0.000000  0.000000 )
               b(2) = (  0.000000  0.973139  0.000000 )
               b(3) = (  0.000000  0.000000  1.430756 )

     PseudoPot. # 1 for B  read from file:
     /home/mehlhorn/pseudos/b_pbesol_v1.4.uspp.F.UPF
     MD5 check sum: 369b69bef2c3aeed4453bd8b804fd6a8
     Pseudo is Ultrasoft + core correction, Zval =  3.0
     Generated by new atomic code, or converted to UPF format
     Using radial grid of  781 points,  4 beta functions with:
                l(1) =   0
                l(2) =   0
                l(3) =   1
                l(4) =   1
     Q(r) pseudized with  8 coefficients,  rinner =    1.100   1.100   1.100

     PseudoPot. # 2 for Ba read from file:
     /home/mehlhorn/pseudos/Ba.nc.z_10.oncvpsp4.dojo.v4-sp.upf
     MD5 check sum: c10ed334bb677c0554edec7181ce9143
     Pseudo is Norm-conserving + core correction, Zval = 10.0
     Generated using ONCVPSP code by D. R. Hamann
     Using radial grid of 1938 points,  8 beta functions with:
                l(1) =   0
                l(2) =   0
                l(3) =   1
                l(4) =   1
                l(5) =   2
                l(6) =   2
                l(7) =   3
                l(8) =   3

     PseudoPot. # 3 for H  read from file:
     /home/mehlhorn/pseudos/H_ONCV_PBEsol-1.0.upf
     MD5 check sum: 398ef8f67c0a7342c05c87c5e19ea467
     Pseudo is Norm-conserving, Zval =  1.0
     Generated using ONCVPSP code by D. R. Hamann
     Using radial grid of 1180 points,  2 beta functions with:
                l(1) =   0
                l(2) =   0

     atomic species   valence    mass     pseudopotential
     B                 3.00    10.81100     B ( 1.00)
     Ba               10.00   137.32700     Ba( 1.00)
     H                 1.00     1.00794     H ( 1.00)

      4 Sym. Ops. (no inversion) found ( 2 have fractional translation)

   Cartesian axes

     site n.     atom                  positions (alat units)
         1        Ba     tau(   1) = (   0.4943444   0.5138012   0.3494673  )
         2        Ba     tau(   2) = (   0.0000000   0.0000000   0.6989292  )
         3        B      tau(   3) = (   0.5971823   0.2418258  -0.0000008  )
         4        B      tau(   4) = (   0.3915066   0.7857766  -0.0000008  )
         5        B      tau(   5) = (   0.1028378   0.2719754   0.3494663  )
         6        B      tau(   6) = (   0.8858510   0.7556270   0.3494663  )
         7        H      tau(   7) = (   0.4200798   0.3016253  -0.0000063  )
         8        H      tau(   8) = (   0.5686091   0.7259771  -0.0000063  )
         9        H      tau(   9) = (   0.9144243   0.2121759   0.3494718  )
        10        H      tau(  10) = (   0.0742646   0.8154265   0.3494718  )
        11        H      tau(  11) = (   0.7147585   0.3890372   0.0000132  )
        12        H      tau(  12) = (   0.2739304   0.6385652   0.0000132  )
        13        H      tau(  13) = (   0.2204141   0.1247640   0.3494523  )
        14        H      tau(  14) = (   0.7682748   0.9028384   0.3494523  )
        15        H      tau(  15) = (   0.6242518   0.1401815   0.5447173  )
        16        H      tau(  16) = (   0.3644371   0.8874209   0.5447173  )
        17        H      tau(  17) = (   0.1299074   0.3736197   0.5036793  )
        18        H      tau(  18) = (   0.8587815   0.6539827   0.5036793  )
        19        H      tau(  19) = (   0.3644563   0.8874167   0.1542163  )
        20        H      tau(  20) = (   0.6242326   0.1401857   0.1542163  )
        21        H      tau(  21) = (   0.8588007   0.6539869   0.1952492  )
        22        H      tau(  22) = (   0.1298882   0.3736155   0.1952492  )

     number of k points=    27
                       cart. coord. in units 2pi/alat
        k(    1) = (   0.0000000   0.0000000   0.0000000), wk =   0.0312500
        k(    2) = (   0.0000000   0.0000000   0.3576891), wk =   0.0625000
        k(    3) = (   0.0000000   0.0000000  -0.7153782), wk =   0.0312500
        k(    4) = (   0.0000000   0.2432848   0.0000000), wk =   0.0625000
        k(    5) = (   0.0000000   0.2432848   0.3576891), wk =   0.1250000
        k(    6) = (   0.0000000   0.2432848  -0.7153782), wk =   0.0625000
        k(    7) = (   0.0000000  -0.4865695   0.0000000), wk =   0.0312500
        k(    8) = (   0.0000000  -0.4865695   0.3576891), wk =   0.0625000
        k(    9) = (   0.0000000  -0.4865695  -0.7153782), wk =   0.0312500
        k(   10) = (   0.2528601   0.0000000   0.0000000), wk =   0.0625000
        k(   11) = (   0.2528601   0.0000000   0.3576891), wk =   0.1250000
        k(   12) = (   0.2528601   0.0000000  -0.7153782), wk =   0.0625000
        k(   13) = (   0.2528601   0.2432848   0.0000000), wk =   0.1250000
        k(   14) = (   0.2528601   0.2432848   0.3576891), wk =   0.2500000
        k(   15) = (   0.2528601   0.2432848  -0.7153782), wk =   0.1250000
        k(   16) = (   0.2528601  -0.4865695   0.0000000), wk =   0.0625000
        k(   17) = (   0.2528601  -0.4865695   0.3576891), wk =   0.1250000
        k(   18) = (   0.2528601  -0.4865695  -0.7153782), wk =   0.0625000
        k(   19) = (  -0.5057203   0.0000000   0.0000000), wk =   0.0312500
        k(   20) = (  -0.5057203   0.0000000   0.3576891), wk =   0.0625000
        k(   21) = (  -0.5057203   0.0000000  -0.7153782), wk =   0.0312500
        k(   22) = (  -0.5057203   0.2432848   0.0000000), wk =   0.0625000
        k(   23) = (  -0.5057203   0.2432848   0.3576891), wk =   0.1250000
        k(   24) = (  -0.5057203   0.2432848  -0.7153782), wk =   0.0625000
        k(   25) = (  -0.5057203  -0.4865695   0.0000000), wk =   0.0312500
        k(   26) = (  -0.5057203  -0.4865695   0.3576891), wk =   0.0625000
        k(   27) = (  -0.5057203  -0.4865695  -0.7153782), wk =   0.0312500

     Initial potential from superposition of free atoms

     starting charge      47.9682, renormalised to      48.0000
     Starting wfcs are   42 randomized atomic wfcs

     Self-consistent Calculation

[...]

     total energy              =    -156.47287616 Ry
     estimated scf accuracy    <          1.5E-12 Ry

     iteration # 13     ecut=   100.00 Ry     beta= 0.70
     Davidson diagonalization with overlap
     ethr =  1.00E-13,  avg # of iterations =  1.0

     End of self-consistent calculation

[...]

          k = 0.2529-0.4866-0.7154 ( 23008 PWs)   bands (ev):

[...]

          k =-0.5057-0.4866-0.7154 ( 22976 PWs)   bands (ev):

   -23.2923 -23.2923  -9.0794  -9.0794  -8.7056  -8.7056  -8.6119  -8.6119
    -4.5805  -4.5805  -3.9932  -3.9932  -1.2705  -1.2705  -0.4830  -0.4830
     0.6283   0.6283   0.6956   0.6956   0.8880   0.8880   1.1025   1.1025

     highest occupied level (ev):     1.3207

!    total energy              =    -156.47287616 Ry
     estimated scf accuracy    <          6.4E-14 Ry

     The total energy is the sum of the following terms:
     one-electron contribution =     -17.01222865 Ry
     hartree contribution      =      23.74601348 Ry
     xc contribution           =     -49.23333200 Ry
     ewald contribution        =    -113.97332899 Ry

     convergence has been achieved in  13 iterations

     Forces acting on atoms (cartesian axes, Ry/au):

     atom    1 type  2   force =     0.00000000    0.00000000   -0.00000617
     atom    2 type  2   force =     0.00000000    0.00000000    0.00000617
     atom    3 type  1   force =     0.00000112   -0.00000057    0.00000512
     atom    4 type  1   force =    -0.00000112    0.00000057    0.00000512
     atom    5 type  1   force =     0.00000112    0.00000057   -0.00000512
     atom    6 type  1   force =    -0.00000112   -0.00000057   -0.00000512
     atom    7 type  3   force =    -0.00000143   -0.00000053   -0.00000172
     atom    8 type  3   force =     0.00000143    0.00000053   -0.00000172
     atom    9 type  3   force =    -0.00000143    0.00000053    0.00000172
     atom   10 type  3   force =     0.00000143   -0.00000053    0.00000172
     atom   11 type  3   force =     0.00000232    0.00000184   -0.00000792
     atom   12 type  3   force =    -0.00000232   -0.00000184   -0.00000792
     atom   13 type  3   force =     0.00000232   -0.00000184    0.00000792
     atom   14 type  3   force =    -0.00000232    0.00000184    0.00000792
     atom   15 type  3   force =    -0.00000359    0.00000544    0.00000161
     atom   16 type  3   force =     0.00000359   -0.00000544    0.00000161
     atom   17 type  3   force =    -0.00000359   -0.00000544   -0.00000161
     atom   18 type  3   force =     0.00000359    0.00000544   -0.00000161
     atom   19 type  3   force =    -0.00000185    0.00000640    0.00000396
     atom   20 type  3   force =     0.00000185   -0.00000640    0.00000396
     atom   21 type  3   force =    -0.00000185   -0.00000640   -0.00000396
     atom   22 type  3   force =     0.00000185    0.00000640   -0.00000396

     Total force =     0.000030     Total SCF correction =     0.000000

     Computing stress (Cartesian axis) and pressure

          total   stress  (Ry/bohr**3)                   (kbar)     P=        9.64
   0.00006554   0.00000000   0.00000000            9.64        0.00        0.00
   0.00000000   0.00006555   0.00000000            0.00        9.64        0.00
   0.00000000   0.00000000   0.00006557            0.00        0.00        9.65

     Writing all to output data dir ./pwscf.save/ :
     XML data file, charge density, pseudopotentials, collected wavefunctions

     General routines

     Parallel routines

   This run was terminated on:  17:45:27  11Jul2024

   JOB DONE.