     Program PWSCF v.7.3.1 starts on 12Jul2024 at 12:17:15

     Waiting for input...
     Reading input from standard input

     Current dimensions of program PWSCF are:
     Max number of different atomic species (ntypx) = 10
     Max number of k-points (npk) =  40000
     Max angular momentum in pseudopotentials (lmaxx) =  4

     R & G space division:  proc/nbgrp/npool/nimage =      24
     Subspace diagonalization in iterative solution of the eigenvalue problem:
     a serial algorithm will be used

     Using Slab Decomposition

     Title:
     pre-ph

     bravais-lattice index     =            8
     lattice parameter (alat)  =      12.6565  a.u.
     unit-cell volume          =    1434.1051 (a.u.)^3
     number of atoms/cell      =           22
     number of atomic types    =            3
     number of electrons       =        48.00
     number of Kohn-Sham states=           24
     kinetic-energy cutoff     =     100.0000  Ry
     charge density cutoff     =     800.0000  Ry
     scf convergence threshold =      1.0E-10
     mixing beta               =       0.7000
     number of iterations used =            8  plain     mixing
     Exchange-correlation= PBESOL
                           (   1   4  10   8   0   0   0)

     celldm(1)=  12.656498  celldm(2)=   1.024085  celldm(3)=   0.690724
     celldm(4)=   0.000000  celldm(5)=   0.000000  celldm(6)=   0.000000

     crystal axes: (cart. coord. in units of alat)
               a(1) = (   1.000000   0.000000   0.000000 )
               a(2) = (   0.000000   1.024085   0.000000 )
               a(3) = (   0.000000   0.000000   0.690724 )

     reciprocal axes: (cart. coord. in units 2 pi/alat)
               b(1) = (  1.000000  0.000000  0.000000 )
               b(2) = (  0.000000  0.976481  0.000000 )
               b(3) = (  0.000000  0.000000  1.447757 )

     PseudoPot. # 1 for B  read from file:
     /home/mehlhorn/pseudos/b_pbesol_v1.4.uspp.F.UPF
     MD5 check sum: 369b69bef2c3aeed4453bd8b804fd6a8
     Pseudo is Ultrasoft + core correction, Zval =  3.0
     Generated by new atomic code, or converted to UPF format
     Using radial grid of  781 points,  4 beta functions with:
                l(1) =   0
                l(2) =   0
                l(3) =   1
                l(4) =   1
     Q(r) pseudized with  8 coefficients,  rinner =    1.100   1.100   1.100

     PseudoPot. # 2 for Ba read from file:
     /home/mehlhorn/pseudos/Ba.nc.z_10.oncvpsp4.dojo.v4-sp.upf
     MD5 check sum: c10ed334bb677c0554edec7181ce9143
     Pseudo is Norm-conserving + core correction, Zval = 10.0
     Generated using ONCVPSP code by D. R. Hamann
     Using radial grid of 1938 points,  8 beta functions with:
                l(1) =   0
                l(2) =   0
                l(3) =   1
                l(4) =   1
                l(5) =   2
                l(6) =   2
                l(7) =   3
                l(8) =   3

     PseudoPot. # 3 for H  read from file:
     /home/mehlhorn/pseudos/H_ONCV_PBEsol-1.0.upf
     MD5 check sum: 398ef8f67c0a7342c05c87c5e19ea467
     Pseudo is Norm-conserving, Zval =  1.0
     Generated using ONCVPSP code by D. R. Hamann
     Using radial grid of 1180 points,  2 beta functions with:
                l(1) =   0
                l(2) =   0

     atomic species   valence    mass     pseudopotential
     B                 3.00    10.81100     B ( 1.00)
     Ba               10.00   137.32700     Ba( 1.00)
     H                 1.00     1.00794     H ( 1.00)

      4 Sym. Ops. (no inversion) found ( 2 have fractional translation)

   Cartesian axes

     site n.     atom                  positions (alat units)
         1        Ba     tau(   1) = (   0.5000000   0.5120426   0.3453603  )
         2        Ba     tau(   2) = (   0.0000000   0.0000000   0.6907250  )
         3        B      tau(   3) = (   0.6110133   0.2455404  -0.0000027  )
         4        B      tau(   4) = (   0.3889867   0.7785449  -0.0000027  )
         5        B      tau(   5) = (   0.1110133   0.2665022   0.3453645  )
         6        B      tau(   6) = (   0.8889867   0.7575830   0.3453645  )
         7        H      tau(   7) = (   0.4351467   0.2990349   0.0000209  )
         8        H      tau(   8) = (   0.5648533   0.7250503   0.0000209  )
         9        H      tau(   9) = (   0.9351467   0.2130077   0.3453408  )
        10        H      tau(  10) = (   0.0648533   0.8110776   0.3453408  )
        11        H      tau(  11) = (   0.7219178   0.3935696  -0.0000075  )
        12        H      tau(  12) = (   0.2780822   0.6305156  -0.0000075  )
        13        H      tau(  13) = (   0.2219178   0.1184730   0.3453692  )
        14        H      tau(  14) = (   0.7780822   0.9056123   0.3453692  )
        15        H      tau(  15) = (   0.6403692   0.1463075   0.5391614  )
        16        H      tau(  16) = (   0.3596308   0.8777778   0.5391614  )
        17        H      tau(  17) = (   0.1403692   0.3657351   0.4969238  )
        18        H      tau(  18) = (   0.8596308   0.6583501   0.4969238  )
        19        H      tau(  19) = (   0.3595982   0.8777712   0.1515533  )
        20        H      tau(  20) = (   0.6404018   0.1463140   0.1515533  )
        21        H      tau(  21) = (   0.8595982   0.6583566   0.1938084  )
        22        H      tau(  22) = (   0.1404018   0.3657286   0.1938084  )

     number of k points=    27
                       cart. coord. in units 2pi/alat
        k(    1) = (   0.0000000   0.0000000   0.0000000), wk =   0.0160000
        k(    2) = (   0.0000000   0.0000000   0.2895515), wk =   0.0320000
        k(    3) = (   0.0000000   0.0000000   0.5791029), wk =   0.0320000
        k(    4) = (   0.0000000   0.1952962   0.0000000), wk =   0.0320000
        k(    5) = (   0.0000000   0.1952962   0.2895515), wk =   0.0640000
        k(    6) = (   0.0000000   0.1952962   0.5791029), wk =   0.0640000
        k(    7) = (   0.0000000   0.3905925   0.0000000), wk =   0.0320000
        k(    8) = (   0.0000000   0.3905925   0.2895515), wk =   0.0640000
        k(    9) = (   0.0000000   0.3905925   0.5791029), wk =   0.0640000
        k(   10) = (   0.2000000   0.0000000   0.0000000), wk =   0.0320000
        k(   11) = (   0.2000000   0.0000000   0.2895515), wk =   0.0640000
        k(   12) = (   0.2000000   0.0000000   0.5791029), wk =   0.0640000
        k(   13) = (   0.2000000   0.1952962   0.0000000), wk =   0.0640000
        k(   14) = (   0.2000000   0.1952962   0.2895515), wk =   0.1280000
        k(   15) = (   0.2000000   0.1952962   0.5791029), wk =   0.1280000
        k(   16) = (   0.2000000   0.3905925   0.0000000), wk =   0.0640000
        k(   17) = (   0.2000000   0.3905925   0.2895515), wk =   0.1280000
        k(   18) = (   0.2000000   0.3905925   0.5791029), wk =   0.1280000
        k(   19) = (   0.4000000   0.0000000   0.0000000), wk =   0.0320000
        k(   20) = (   0.4000000   0.0000000   0.2895515), wk =   0.0640000
        k(   21) = (   0.4000000   0.0000000   0.5791029), wk =   0.0640000
        k(   22) = (   0.4000000   0.1952962   0.0000000), wk =   0.0640000
        k(   23) = (   0.4000000   0.1952962   0.2895515), wk =   0.1280000
        k(   24) = (   0.4000000   0.1952962   0.5791029), wk =   0.1280000
        k(   25) = (   0.4000000   0.3905925   0.0000000), wk =   0.0640000
        k(   26) = (   0.4000000   0.3905925   0.2895515), wk =   0.1280000
        k(   27) = (   0.4000000   0.3905925   0.5791029), wk =   0.1280000

     Initial potential from superposition of free atoms

     starting charge      47.9682, renormalised to      48.0000
     Starting wfcs are   42 randomized atomic wfcs

     Self-consistent Calculation

     iteration #  1     ecut=   100.00 Ry     beta= 0.70
     Davidson diagonalization with overlap
     ethr =  1.00E-02,  avg # of iterations =  2.0

     total energy              =    -155.92650551 Ry
     estimated scf accuracy    <       2.09144642 Ry

[...]

     total energy              =    -156.47486340 Ry
     estimated scf accuracy    <          4.1E-10 Ry

     iteration # 11     ecut=   100.00 Ry     beta= 0.70
     Davidson diagonalization with overlap
     ethr =  8.51E-13,  avg # of iterations =  3.8

     End of self-consistent calculation

          k = 0.0000 0.0000 0.0000 ( 24203 PWs)   bands (ev):

   -23.8250 -23.8157  -9.3891  -9.2985  -9.0944  -9.0535  -9.0233  -8.9573
    -6.0079  -5.0468  -4.3465  -4.2037  -1.7063  -0.7853  -0.7117  -0.3658
     0.0130   0.0259   0.0915   0.1958   0.3774   0.7858   0.8011   0.8430

[...]

          k = 0.4000 0.3906 0.5791 ( 24222 PWs)   bands (ev):

   -23.8080 -23.8077  -9.4808  -9.4703  -9.1930  -9.1721  -9.0749  -9.0733
    -4.9630  -4.8949  -4.5336  -4.4634  -1.4827  -1.4540  -0.7050  -0.6919
     0.0438   0.1776   0.2758   0.3169   0.4783   0.5010   0.6782   0.7171

     highest occupied level (ev):     0.8506

!    total energy              =    -156.47486340 Ry
     estimated scf accuracy    <          2.2E-11 Ry

     The total energy is the sum of the following terms:
     one-electron contribution =     -21.97713430 Ry
     hartree contribution      =      25.45270190 Ry
     xc contribution           =     -49.13672777 Ry
     ewald contribution        =    -110.81370323 Ry

     convergence has been achieved in  11 iterations

     Writing all to output data dir ./pwscf.save/ :
     XML data file, charge density, pseudopotentials, collected wavefunctions

     General routines

     Parallel routines

   This run was terminated on:  12:21: 6  12Jul2024

   JOB DONE.