     Program PHONON v.7.3.1 starts on 12Jul2024 at 12:21: 7

     Waiting for input...
     Reading input from standard input

     Reading xml data from directory:

     ./pwscf.save/

     R & G space division:  proc/nbgrp/npool/nimage =      24
     Subspace diagonalization in iterative solution of the eigenvalue problem:
     a serial algorithm will be used

     IMPORTANT: XC functional enforced from input :
     Exchange-correlation= PBESOL
                           (   1   4  10   8   0   0   0)
     Any further DFT definition will be discarded
     Please, verify this is what you really want

     Using Slab Decomposition

     Reading collected, re-writing distributed wavefunctions in ./

     Dynamical matrices for ( 3, 3, 3)  uniform grid of q-points
     (   8 q-points):
       N         xq(1)         xq(2)         xq(3)
       1   0.000000000   0.000000000   0.000000000
       2   0.000000000   0.000000000   0.482585772
       3   0.000000000   0.325493732   0.000000000
       4   0.000000000   0.325493732   0.482585772
       5   0.333333333   0.000000000   0.000000000
       6   0.333333333   0.000000000   0.482585772
       7   0.333333333   0.325493732   0.000000000
       8   0.333333333   0.325493732   0.482585772

     Number and degeneracy of irreps per q-point
       N         xq(1)         xq(2)         xq(3)   N irreps
       1   0.000000000   0.000000000   0.000000000      66
     No degeneracy
       2   0.000000000   0.000000000   0.482585772      66
     No degeneracy
       3   0.000000000   0.325493732   0.000000000      66
     No degeneracy
       4   0.000000000   0.325493732   0.482585772      66
     No degeneracy
       5   0.333333333   0.000000000   0.000000000      66
     No degeneracy
       6   0.333333333   0.000000000   0.482585772      66
     No degeneracy
       7   0.333333333   0.325493732   0.000000000      66
     No degeneracy
       8   0.333333333   0.325493732   0.482585772      66
     No degeneracy

     Saving dvscf to file. Distribute only q points, not irreducible representations.

     Calculation of q =    0.0000000   0.0000000   0.0000000

     bravais-lattice index     =            8
     lattice parameter (alat)  =      12.6565  a.u.
     unit-cell volume          =    1434.1051 (a.u.)^3
     number of atoms/cell      =           22
     number of atomic types    =            3
     kinetic-energy cut-off    =     100.0000  Ry
     charge density cut-off    =     800.0000  Ry
     convergence threshold     =      1.0E-14
     beta                      =       0.7000
     number of iterations used =            4
     Exchange-correlation= PBESOL
                           (   1   4  10   8   0   0   0)

     celldm(1)=   12.65650  celldm(2)=    1.02409  celldm(3)=    0.69072
     celldm(4)=    0.00000  celldm(5)=    0.00000  celldm(6)=    0.00000

     crystal axes: (cart. coord. in units of alat)
               a(1) = (  1.0000  0.0000  0.0000 )
               a(2) = (  0.0000  1.0241  0.0000 )
               a(3) = (  0.0000  0.0000  0.6907 )

     reciprocal axes: (cart. coord. in units 2 pi/alat)
               b(1) = (  1.0000  0.0000  0.0000 )
               b(2) = (  0.0000  0.9765  0.0000 )
               b(3) = (  0.0000  0.0000  1.4478 )

     Atoms inside the unit cell:

     Cartesian axes

     site n.  atom      mass           positions (alat units)
        1  Ba    137.3270   tau(    1) = (    0.50000    0.51204    0.34536  )
        2  Ba    137.3270   tau(    2) = (    0.00000    0.00000    0.69072  )
        3  B      10.8110   tau(    3) = (    0.61101    0.24554   -0.00000  )
        4  B      10.8110   tau(    4) = (    0.38899    0.77854   -0.00000  )
        5  B      10.8110   tau(    5) = (    0.11101    0.26650    0.34536  )
        6  B      10.8110   tau(    6) = (    0.88899    0.75758    0.34536  )
        7  H       1.0079   tau(    7) = (    0.43515    0.29903    0.00002  )
        8  H       1.0079   tau(    8) = (    0.56485    0.72505    0.00002  )
        9  H       1.0079   tau(    9) = (    0.93515    0.21301    0.34534  )
       10  H       1.0079   tau(   10) = (    0.06485    0.81108    0.34534  )
       11  H       1.0079   tau(   11) = (    0.72192    0.39357   -0.00001  )
       12  H       1.0079   tau(   12) = (    0.27808    0.63052   -0.00001  )
       13  H       1.0079   tau(   13) = (    0.22192    0.11847    0.34537  )
       14  H       1.0079   tau(   14) = (    0.77808    0.90561    0.34537  )
       15  H       1.0079   tau(   15) = (    0.64037    0.14631    0.53916  )
       16  H       1.0079   tau(   16) = (    0.35963    0.87778    0.53916  )
       17  H       1.0079   tau(   17) = (    0.14037    0.36574    0.49692  )
       18  H       1.0079   tau(   18) = (    0.85963    0.65835    0.49692  )
       19  H       1.0079   tau(   19) = (    0.35960    0.87777    0.15155  )
       20  H       1.0079   tau(   20) = (    0.64040    0.14631    0.15155  )
       21  H       1.0079   tau(   21) = (    0.85960    0.65836    0.19381  )
       22  H       1.0079   tau(   22) = (    0.14040    0.36573    0.19381  )

     Computing dynamical matrix for
                    q = (   0.0000000   0.0000000   0.0000000 )

      5 Sym.Ops. (with q -> -q+G )

     G cutoff = 3246.0660  (  22835 G-vectors)     FFT grid: (120,120, 80)
     G cutoff = 1623.0330  (   8074 G-vectors)  smooth grid: ( 90, 90, 60)
     number of k points=    27

     PseudoPot. # 1 for B  read from file:
     /home/mehlhorn/pseudos/b_pbesol_v1.4.uspp.F.UPF
     MD5 check sum: 369b69bef2c3aeed4453bd8b804fd6a8
     Pseudo is Ultrasoft + core correction, Zval =  3.0
     Generated by new atomic code, or converted to UPF format
     Using radial grid of  781 points,  4 beta functions with:
                l(1) =   0
                l(2) =   0
                l(3) =   1
                l(4) =   1
     Q(r) pseudized with  8 coefficients,  rinner =    1.100   1.100   1.100

     PseudoPot. # 2 for Ba read from file:
     /home/mehlhorn/pseudos/Ba.nc.z_10.oncvpsp4.dojo.v4-sp.upf
     MD5 check sum: c10ed334bb677c0554edec7181ce9143
     Pseudo is Norm-conserving + core correction, Zval = 10.0
     Generated using ONCVPSP code by D. R. Hamann
     Using radial grid of 1938 points,  8 beta functions with:
                l(1) =   0
                l(2) =   0
                l(3) =   1
                l(4) =   1
                l(5) =   2
                l(6) =   2
                l(7) =   3
                l(8) =   3

     PseudoPot. # 3 for H  read from file:
     /home/mehlhorn/pseudos/H_ONCV_PBEsol-1.0.upf
     MD5 check sum: 398ef8f67c0a7342c05c87c5e19ea467
     Pseudo is Norm-conserving, Zval =  1.0
     Generated using ONCVPSP code by D. R. Hamann
     Using radial grid of 1180 points,  2 beta functions with:
                l(1) =   0
                l(2) =   0

     Mode symmetry, D_2  (222)  point group:

     Electric field:
     Dielectric constant
     Born effective charges in two ways

     Atomic displacements:
     There are   66 irreducible representations

     Representation     1      1 modes -  To be done

[...]

     Alpha used in Ewald sum =   2.8000

     Electric Fields Calculation

      thresh= 1.000E-02 alpha_mix =  0.700 |ddv_scf|^2 =  5.926E-09

[...]

     End of electric fields calculation

          Dielectric constant in cartesian axis

          (       3.106564956       0.000000000       0.000000000 )
          (       0.000000000       3.164886867       0.000000000 )
          (       0.000000000       0.000000000       3.303999482 )

          Effective charges (d Force / dE) in cartesian axis without acoustic sum rule applied (asr)

           atom    1  Ba    Mean Z*:        2.65174
      Ex  (        2.48896       -0.04748        0.00000 )
      Ey  (        0.28638        2.50900        0.00000 )
      Ez  (        0.00000        0.00000        2.95725 )
           atom    2  Ba    Mean Z*:        2.65174
      Ex  (        2.48896        0.04748        0.00000 )
      Ey  (       -0.28638        2.50900        0.00000 )
      Ez  (        0.00000        0.00000        2.95725 )
           atom    3  B     Mean Z*:       -0.12882
      Ex  (       -0.14629        0.03177        0.00002 )
      Ey  (        0.17469       -0.03949       -0.00002 )
      Ez  (       -0.00002        0.00001       -0.20067 )
           atom    4  B     Mean Z*:       -0.12882
      Ex  (       -0.14629        0.03177       -0.00002 )
      Ey  (        0.17469       -0.03949        0.00002 )
      Ez  (        0.00002       -0.00001       -0.20067 )
           atom    5  B     Mean Z*:       -0.12882
      Ex  (       -0.14629       -0.03177       -0.00002 )
      Ey  (       -0.17469       -0.03949       -0.00002 )
      Ez  (        0.00002        0.00001       -0.20067 )
           atom    6  B     Mean Z*:       -0.12882
      Ex  (       -0.14629       -0.03177        0.00002 )
      Ey  (       -0.17469       -0.03949        0.00002 )
      Ez  (       -0.00002       -0.00001       -0.20067 )
           atom    7  H     Mean Z*:       -0.30921
      Ex  (       -0.43025        0.13787        0.00004 )
      Ey  (        0.14443       -0.24909       -0.00005 )
      Ez  (        0.00004       -0.00005       -0.24829 )
           atom    8  H     Mean Z*:       -0.30921
      Ex  (       -0.43025        0.13787       -0.00004 )
      Ey  (        0.14443       -0.24909        0.00005 )
      Ez  (       -0.00004        0.00005       -0.24829 )
           atom    9  H     Mean Z*:       -0.30921
      Ex  (       -0.43025       -0.13787       -0.00004 )
      Ey  (       -0.14443       -0.24909       -0.00005 )
      Ez  (       -0.00004       -0.00005       -0.24829 )
           atom   10  H     Mean Z*:       -0.30921
      Ex  (       -0.43025       -0.13787        0.00004 )
      Ey  (       -0.14443       -0.24909        0.00005 )
      Ez  (        0.00004        0.00005       -0.24829 )
           atom   11  H     Mean Z*:       -0.31260
      Ex  (       -0.26455       -0.04009        0.00000 )
      Ey  (       -0.11232       -0.42997       -0.00000 )
      Ez  (        0.00002        0.00001       -0.24329 )
           atom   12  H     Mean Z*:       -0.31260
      Ex  (       -0.26455       -0.04009       -0.00000 )
      Ey  (       -0.11232       -0.42997        0.00000 )
      Ez  (       -0.00002       -0.00001       -0.24329 )
           atom   13  H     Mean Z*:       -0.31260
      Ex  (       -0.26455        0.04009       -0.00000 )
      Ey  (        0.11232       -0.42997       -0.00000 )
      Ez  (       -0.00002        0.00001       -0.24329 )
           atom   14  H     Mean Z*:       -0.31260
      Ex  (       -0.26455        0.04009        0.00000 )
      Ey  (        0.11232       -0.42997        0.00000 )
      Ez  (        0.00002       -0.00001       -0.24329 )
           atom   15  H     Mean Z*:       -0.28738
      Ex  (       -0.20181        0.14693        0.06102 )
      Ey  (        0.09868       -0.26737       -0.09536 )
      Ez  (        0.02177       -0.11258       -0.39298 )
           atom   16  H     Mean Z*:       -0.28738
[...]

[...]

     atomic species   valence    mass     pseudopotential
     B                 3.00    10.81100     B ( 1.00)
     Ba               10.00   137.32700     Ba( 1.00)
     H                 1.00     1.00794     H ( 1.00)

      4 Sym. Ops. (no inversion) found

[...]

     site n.     atom                  positions (alat units)
         1        Ba     tau(   1) = (   0.5000000   0.5120426   0.3453603  )
         2        Ba     tau(   2) = (   0.0000000   0.0000000   0.6907250  )
         3        B      tau(   3) = (   0.6110133   0.2455404  -0.0000027  )
         4        B      tau(   4) = (   0.3889867   0.7785449  -0.0000027  )
         5        B      tau(   5) = (   0.1110133   0.2665022   0.3453645  )
         6        B      tau(   6) = (   0.8889867   0.7575830   0.3453645  )
         7        H      tau(   7) = (   0.4351467   0.2990349   0.0000209  )
         8        H      tau(   8) = (   0.5648533   0.7250503   0.0000209  )
         9        H      tau(   9) = (   0.9351467   0.2130077   0.3453408  )
        10        H      tau(  10) = (   0.0648533   0.8110776   0.3453408  )
        11        H      tau(  11) = (   0.7219178   0.3935696  -0.0000075  )
        12        H      tau(  12) = (   0.2780822   0.6305156  -0.0000075  )
        13        H      tau(  13) = (   0.2219178   0.1184730   0.3453692  )
        14        H      tau(  14) = (   0.7780822   0.9056123   0.3453692  )
        15        H      tau(  15) = (   0.6403692   0.1463075   0.5391614  )
        16        H      tau(  16) = (   0.3596308   0.8777778   0.5391614  )
        17        H      tau(  17) = (   0.1403692   0.3657351   0.4969238  )
        18        H      tau(  18) = (   0.8596308   0.6583501   0.4969238  )
        19        H      tau(  19) = (   0.3595982   0.8777712   0.1515533  )
        20        H      tau(  20) = (   0.6404018   0.1463140   0.1515533  )
        21        H      tau(  21) = (   0.8595982   0.6583566   0.1938084  )
        22        H      tau(  22) = (   0.1404018   0.3657286   0.1938084  )

     number of k points=   250

     Number of k-points >= 100: set verbosity='high' to print them.

     The potential is recalculated from file :
     ./_ph0/pwscf.q_8/pwscf.save/charge-density

     Starting wfcs are   42 atomic wfcs

     Band Structure Calculation
     Davidson diagonalization with overlap

     ethr =  2.08E-11,  avg # of iterations = 22.0

     End of band structure calculation

     Number of k-points >= 100: set verbosity='high' to print the bands.

     highest occupied level (ev):     0.8506

     Writing config to output data dir ./_ph0/pwscf.q_8/pwscf.save/ :
     XML data file

     bravais-lattice index     =            8
     lattice parameter (alat)  =      12.6565  a.u.
     unit-cell volume          =    1434.1051 (a.u.)^3
     number of atoms/cell      =           22
     number of atomic types    =            3
     kinetic-energy cut-off    =     100.0000  Ry
     charge density cut-off    =     800.0000  Ry
     convergence threshold     =      1.0E-14
     beta                      =       0.7000
     number of iterations used =            4
     Exchange-correlation= PBESOL
                           (   1   4  10   8   0   0   0)

     celldm(1)=   12.65650  celldm(2)=    1.02409  celldm(3)=    0.69072
     celldm(4)=    0.00000  celldm(5)=    0.00000  celldm(6)=    0.00000

     crystal axes: (cart. coord. in units of alat)
               a(1) = (  1.0000  0.0000  0.0000 )
               a(2) = (  0.0000  1.0241  0.0000 )
               a(3) = (  0.0000  0.0000  0.6907 )

     reciprocal axes: (cart. coord. in units 2 pi/alat)
               b(1) = (  1.0000  0.0000  0.0000 )
               b(2) = (  0.0000  0.9765  0.0000 )
               b(3) = (  0.0000  0.0000  1.4478 )

     Atoms inside the unit cell:

     Cartesian axes

     site n.  atom      mass           positions (alat units)
        1  Ba    137.3270   tau(    1) = (    0.50000    0.51204    0.34536  )
        2  Ba    137.3270   tau(    2) = (    0.00000    0.00000    0.69072  )
        3  B      10.8110   tau(    3) = (    0.61101    0.24554   -0.00000  )
        4  B      10.8110   tau(    4) = (    0.38899    0.77854   -0.00000  )
        5  B      10.8110   tau(    5) = (    0.11101    0.26650    0.34536  )
        6  B      10.8110   tau(    6) = (    0.88899    0.75758    0.34536  )
        7  H       1.0079   tau(    7) = (    0.43515    0.29903    0.00002  )
        8  H       1.0079   tau(    8) = (    0.56485    0.72505    0.00002  )
        9  H       1.0079   tau(    9) = (    0.93515    0.21301    0.34534  )
       10  H       1.0079   tau(   10) = (    0.06485    0.81108    0.34534  )
       11  H       1.0079   tau(   11) = (    0.72192    0.39357   -0.00001  )
       12  H       1.0079   tau(   12) = (    0.27808    0.63052   -0.00001  )
       13  H       1.0079   tau(   13) = (    0.22192    0.11847    0.34537  )
       14  H       1.0079   tau(   14) = (    0.77808    0.90561    0.34537  )
       15  H       1.0079   tau(   15) = (    0.64037    0.14631    0.53916  )
       16  H       1.0079   tau(   16) = (    0.35963    0.87778    0.53916  )
       17  H       1.0079   tau(   17) = (    0.14037    0.36574    0.49692  )
       18  H       1.0079   tau(   18) = (    0.85963    0.65835    0.49692  )
       19  H       1.0079   tau(   19) = (    0.35960    0.87777    0.15155  )
       20  H       1.0079   tau(   20) = (    0.64040    0.14631    0.15155  )
       21  H       1.0079   tau(   21) = (    0.85960    0.65836    0.19381  )
       22  H       1.0079   tau(   22) = (    0.14040    0.36573    0.19381  )

     Computing dynamical matrix for
                    q = (   0.3333333   0.3254937   0.4825858 )

     No symmetry!

     G cutoff = 3246.0660  (  22835 G-vectors)     FFT grid: (120,120, 80)
     G cutoff = 1623.0330  (   8074 G-vectors)  smooth grid: ( 90, 90, 60)
     number of k points=   250

     PseudoPot. # 1 for B  read from file:
     /home/mehlhorn/pseudos/b_pbesol_v1.4.uspp.F.UPF
     MD5 check sum: 369b69bef2c3aeed4453bd8b804fd6a8
     Pseudo is Ultrasoft + core correction, Zval =  3.0
     Generated by new atomic code, or converted to UPF format
     Using radial grid of  781 points,  4 beta functions with:
                l(1) =   0
                l(2) =   0
                l(3) =   1
                l(4) =   1
     Q(r) pseudized with  8 coefficients,  rinner =    1.100   1.100   1.100

     PseudoPot. # 2 for Ba read from file:
     /home/mehlhorn/pseudos/Ba.nc.z_10.oncvpsp4.dojo.v4-sp.upf
     MD5 check sum: c10ed334bb677c0554edec7181ce9143
     Pseudo is Norm-conserving + core correction, Zval = 10.0
     Generated using ONCVPSP code by D. R. Hamann
     Using radial grid of 1938 points,  8 beta functions with:
                l(1) =   0
                l(2) =   0
                l(3) =   1
                l(4) =   1
                l(5) =   2
                l(6) =   2
                l(7) =   3
                l(8) =   3

     PseudoPot. # 3 for H  read from file:
     /home/mehlhorn/pseudos/H_ONCV_PBEsol-1.0.upf
     MD5 check sum: 398ef8f67c0a7342c05c87c5e19ea467
     Pseudo is Norm-conserving, Zval =  1.0
     Generated using ONCVPSP code by D. R. Hamann
     Using radial grid of 1180 points,  2 beta functions with:
                l(1) =   0
                l(2) =   0

[...]

     Atomic displacements:
     There are   66 irreducible representations

[...]

     Representation    66      1 modes -  To be done

     Alpha used in Ewald sum =   2.8000

[...]

     Representation #  66 mode #  66

     Self-consistent Calculation

[...]

      thresh= 1.138E-08 alpha_mix =  0.700 |ddv_scf|^2 =  1.091E-15

     End of self-consistent calculation

     Convergence has been achieved

     Number of q in the star =    4
     List of q in the star:
          1   0.333333333   0.325493732   0.482585772
          2   0.333333333  -0.325493732  -0.482585772
          3  -0.333333333   0.325493732  -0.482585772
          4  -0.333333333  -0.325493732   0.482585772
     In addition there is the -q list:
          1  -0.333333333  -0.325493732  -0.482585772
          2  -0.333333333   0.325493732   0.482585772
          3   0.333333333  -0.325493732   0.482585772
          4   0.333333333   0.325493732  -0.482585772

     Diagonalizing the dynamical matrix

     q = (    0.333333333   0.325493732   0.482585772 )

     freq (    1) =       1.253156 [THz] =      41.800782 [cm-1]
     freq (    2) =       1.310845 [THz] =      43.725073 [cm-1]
     freq (    3) =       1.727362 [THz] =      57.618594 [cm-1]
     freq (    4) =       1.963653 [THz] =      65.500427 [cm-1]
     freq (    5) =       2.900321 [THz] =      96.744292 [cm-1]
     freq (    6) =       2.999653 [THz] =     100.057651 [cm-1]
     freq (    7) =       4.880102 [THz] =     162.782697 [cm-1]
     freq (    8) =       4.982426 [THz] =     166.195842 [cm-1]
     freq (    9) =       5.646217 [THz] =     188.337519 [cm-1]
     freq (   10) =       5.938950 [THz] =     198.102048 [cm-1]
     freq (   11) =       6.316829 [THz] =     210.706725 [cm-1]
     freq (   12) =       6.343767 [THz] =     211.605295 [cm-1]
     freq (   13) =       6.592649 [THz] =     219.907113 [cm-1]
     freq (   14) =       6.933674 [THz] =     231.282468 [cm-1]
     freq (   15) =       7.414804 [THz] =     247.331232 [cm-1]
     freq (   16) =       7.512592 [THz] =     250.593090 [cm-1]
     freq (   17) =       8.456547 [THz] =     282.080044 [cm-1]
     freq (   18) =       8.517106 [THz] =     284.100062 [cm-1]
     freq (   19) =       8.731747 [THz] =     291.259727 [cm-1]
     freq (   20) =       8.783341 [THz] =     292.980729 [cm-1]
     freq (   21) =       9.502120 [THz] =     316.956603 [cm-1]
     freq (   22) =       9.690614 [THz] =     323.244088 [cm-1]
     freq (   23) =       9.729947 [THz] =     324.556094 [cm-1]
     freq (   24) =       9.806591 [THz] =     327.112656 [cm-1]
     freq (   25) =      10.422986 [THz] =     347.673404 [cm-1]
     freq (   26) =      10.556331 [THz] =     352.121312 [cm-1]
     freq (   27) =      13.175127 [THz] =     439.474928 [cm-1]
     freq (   28) =      13.234965 [THz] =     441.470900 [cm-1]
     freq (   29) =      13.289513 [THz] =     443.290447 [cm-1]
     freq (   30) =      13.388298 [THz] =     446.585555 [cm-1]
     freq (   31) =      30.808957 [THz] =    1027.676182 [cm-1]
     freq (   32) =      30.825498 [THz] =    1028.227945 [cm-1]
     freq (   33) =      30.989871 [THz] =    1033.710825 [cm-1]
     freq (   34) =      31.012643 [THz] =    1034.470427 [cm-1]
     freq (   35) =      31.900117 [THz] =    1064.073351 [cm-1]
     freq (   36) =      31.922249 [THz] =    1064.811597 [cm-1]
     freq (   37) =      31.956613 [THz] =    1065.957880 [cm-1]
     freq (   38) =      32.008597 [THz] =    1067.691873 [cm-1]
     freq (   39) =      32.280816 [THz] =    1076.772117 [cm-1]
     freq (   40) =      32.307919 [THz] =    1077.676192 [cm-1]
     freq (   41) =      32.408646 [THz] =    1081.036053 [cm-1]
     freq (   42) =      32.459401 [THz] =    1082.729068 [cm-1]
     freq (   43) =      35.847956 [THz] =    1195.759096 [cm-1]
     freq (   44) =      35.878899 [THz] =    1196.791233 [cm-1]
     freq (   45) =      36.049597 [THz] =    1202.485130 [cm-1]
     freq (   46) =      36.083422 [THz] =    1203.613387 [cm-1]
     freq (   47) =      36.140662 [THz] =    1205.522734 [cm-1]
     freq (   48) =      36.159773 [THz] =    1206.160209 [cm-1]
     freq (   49) =      36.217465 [THz] =    1208.084607 [cm-1]
     freq (   50) =      36.236383 [THz] =    1208.715619 [cm-1]
     freq (   51) =      68.225588 [THz] =    2275.760637 [cm-1]
     freq (   52) =      68.246031 [THz] =    2276.442567 [cm-1]
     freq (   53) =      68.273475 [THz] =    2277.357990 [cm-1]
     freq (   54) =      68.315179 [THz] =    2278.749079 [cm-1]
     freq (   55) =      70.160239 [THz] =    2340.293658 [cm-1]
     freq (   56) =      70.167764 [THz] =    2340.544682 [cm-1]
     freq (   57) =      70.304208 [THz] =    2345.095960 [cm-1]
     freq (   58) =      70.307921 [THz] =    2345.219796 [cm-1]
     freq (   59) =      70.924950 [THz] =    2365.801671 [cm-1]
     freq (   60) =      70.934249 [THz] =    2366.111869 [cm-1]
     freq (   61) =      71.016209 [THz] =    2368.845757 [cm-1]
     freq (   62) =      71.043221 [THz] =    2369.746762 [cm-1]
     freq (   63) =      71.496875 [THz] =    2384.879049 [cm-1]
     freq (   64) =      71.512571 [THz] =    2385.402603 [cm-1]
     freq (   65) =      71.612396 [THz] =    2388.732405 [cm-1]
     freq (   66) =      71.651459 [THz] =    2390.035420 [cm-1]

     Mode symmetry, C_1 (1)     point group:

     freq (   1-   1) =         41.8  [cm-1]   --> A
     freq (   2-   2) =         43.7  [cm-1]   --> A
     freq (   3-   3) =         57.6  [cm-1]   --> A
     freq (   4-   4) =         65.5  [cm-1]   --> A
     freq (   5-   5) =         96.7  [cm-1]   --> A
     freq (   6-   6) =        100.1  [cm-1]   --> A
     freq (   7-   7) =        162.8  [cm-1]   --> A
     freq (   8-   8) =        166.2  [cm-1]   --> A
     freq (   9-   9) =        188.3  [cm-1]   --> A
     freq (  10-  10) =        198.1  [cm-1]   --> A
     freq (  11-  11) =        210.7  [cm-1]   --> A
     freq (  12-  12) =        211.6  [cm-1]   --> A
     freq (  13-  13) =        219.9  [cm-1]   --> A
     freq (  14-  14) =        231.3  [cm-1]   --> A
     freq (  15-  15) =        247.3  [cm-1]   --> A
     freq (  16-  16) =        250.6  [cm-1]   --> A
     freq (  17-  17) =        282.1  [cm-1]   --> A
     freq (  18-  18) =        284.1  [cm-1]   --> A
     freq (  19-  19) =        291.3  [cm-1]   --> A
     freq (  20-  20) =        293.0  [cm-1]   --> A
     freq (  21-  21) =        317.0  [cm-1]   --> A
     freq (  22-  22) =        323.2  [cm-1]   --> A
     freq (  23-  23) =        324.6  [cm-1]   --> A
     freq (  24-  24) =        327.1  [cm-1]   --> A
     freq (  25-  25) =        347.7  [cm-1]   --> A
     freq (  26-  26) =        352.1  [cm-1]   --> A
     freq (  27-  27) =        439.5  [cm-1]   --> A
     freq (  28-  28) =        441.5  [cm-1]   --> A
     freq (  29-  29) =        443.3  [cm-1]   --> A
     freq (  30-  30) =        446.6  [cm-1]   --> A
     freq (  31-  31) =       1027.7  [cm-1]   --> A
     freq (  32-  32) =       1028.2  [cm-1]   --> A
     freq (  33-  33) =       1033.7  [cm-1]   --> A
     freq (  34-  34) =       1034.5  [cm-1]   --> A
     freq (  35-  35) =       1064.1  [cm-1]   --> A
     freq (  36-  36) =       1064.8  [cm-1]   --> A
     freq (  37-  37) =       1066.0  [cm-1]   --> A
     freq (  38-  38) =       1067.7  [cm-1]   --> A
     freq (  39-  39) =       1076.8  [cm-1]   --> A
     freq (  40-  40) =       1077.7  [cm-1]   --> A
     freq (  41-  41) =       1081.0  [cm-1]   --> A
     freq (  42-  42) =       1082.7  [cm-1]   --> A
     freq (  43-  43) =       1195.8  [cm-1]   --> A
     freq (  44-  44) =       1196.8  [cm-1]   --> A
     freq (  45-  45) =       1202.5  [cm-1]   --> A
     freq (  46-  46) =       1203.6  [cm-1]   --> A
     freq (  47-  47) =       1205.5  [cm-1]   --> A
     freq (  48-  48) =       1206.2  [cm-1]   --> A
     freq (  49-  49) =       1208.1  [cm-1]   --> A
     freq (  50-  50) =       1208.7  [cm-1]   --> A
     freq (  51-  51) =       2275.8  [cm-1]   --> A
     freq (  52-  52) =       2276.4  [cm-1]   --> A
     freq (  53-  53) =       2277.4  [cm-1]   --> A
     freq (  54-  54) =       2278.7  [cm-1]   --> A
     freq (  55-  55) =       2340.3  [cm-1]   --> A
     freq (  56-  56) =       2340.5  [cm-1]   --> A
     freq (  57-  57) =       2345.1  [cm-1]   --> A
     freq (  58-  58) =       2345.2  [cm-1]   --> A
     freq (  59-  59) =       2365.8  [cm-1]   --> A
     freq (  60-  60) =       2366.1  [cm-1]   --> A
     freq (  61-  61) =       2368.8  [cm-1]   --> A
     freq (  62-  62) =       2369.7  [cm-1]   --> A
     freq (  63-  63) =       2384.9  [cm-1]   --> A
     freq (  64-  64) =       2385.4  [cm-1]   --> A
     freq (  65-  65) =       2388.7  [cm-1]   --> A
     freq (  66-  66) =       2390.0  [cm-1]   --> A

     General routines

     Parallel routines

     INITIALIZATION:

     DYNAMICAL MATRIX:

                                        0.00s GPU  (  340992 calls)

                                        0.00s GPU  (   49434 calls)

      General routines

      Additional routines
                                        0.00s GPU  ( 5568290 calls)
                                        0.00s GPU  ( 5568290 calls)

   This run was terminated on:  22:49:38  23Jul2024

   JOB DONE.