     Program PWSCF v.7.3.1 starts on 11Jul2024 at 15:30:39

     Waiting for input...
     Reading input from standard input

     Current dimensions of program PWSCF are:
     Max number of different atomic species (ntypx) = 10
     Max number of k-points (npk) =  40000
     Max angular momentum in pseudopotentials (lmaxx) =  4

     R & G space division:  proc/nbgrp/npool/nimage =      24
     Subspace diagonalization in iterative solution of the eigenvalue problem:
     a serial algorithm will be used

     Using Slab Decomposition

     Title:
     volume variation

     bravais-lattice index     =            8
     lattice parameter (alat)  =      12.7235  a.u.
     unit-cell volume          =    1462.6445 (a.u.)^3
     number of atoms/cell      =           22
     number of atomic types    =            3
     number of electrons       =        48.00
     number of Kohn-Sham states=           24
     kinetic-energy cutoff     =     100.0000  Ry
     charge density cutoff     =     800.0000  Ry
     scf convergence threshold =      1.0E-10
     mixing beta               =       0.7000
     number of iterations used =            8  plain     mixing
     energy convergence thresh.=      1.0E-05
     force convergence thresh. =      1.0E-05
     press convergence thresh. =      5.0E-01
     Exchange-correlation= PBESOL
                           (   1   4  10   8   0   0   0)
     nstep                     =          100

     celldm(1)=  12.723499  celldm(2)=   1.025571  celldm(3)=   0.692394
     celldm(4)=   0.000000  celldm(5)=   0.000000  celldm(6)=   0.000000

     crystal axes: (cart. coord. in units of alat)
               a(1) = (   1.000000   0.000000   0.000000 )
               a(2) = (   0.000000   1.025571   0.000000 )
               a(3) = (   0.000000   0.000000   0.692394 )

     reciprocal axes: (cart. coord. in units 2 pi/alat)
               b(1) = (  1.000000  0.000000  0.000000 )
               b(2) = (  0.000000  0.975067  0.000000 )
               b(3) = (  0.000000  0.000000  1.444264 )

     PseudoPot. # 1 for B  read from file:
     /home/mehlhorn/pseudos/b_pbesol_v1.4.uspp.F.UPF
     MD5 check sum: 369b69bef2c3aeed4453bd8b804fd6a8
     Pseudo is Ultrasoft + core correction, Zval =  3.0
     Generated by new atomic code, or converted to UPF format
     Using radial grid of  781 points,  4 beta functions with:
                l(1) =   0
                l(2) =   0
                l(3) =   1
                l(4) =   1
     Q(r) pseudized with  8 coefficients,  rinner =    1.100   1.100   1.100

     PseudoPot. # 2 for Ba read from file:
     /home/mehlhorn/pseudos/Ba.nc.z_10.oncvpsp4.dojo.v4-sp.upf
     MD5 check sum: c10ed334bb677c0554edec7181ce9143
     Pseudo is Norm-conserving + core correction, Zval = 10.0
     Generated using ONCVPSP code by D. R. Hamann
     Using radial grid of 1938 points,  8 beta functions with:
                l(1) =   0
                l(2) =   0
                l(3) =   1
                l(4) =   1
                l(5) =   2
                l(6) =   2
                l(7) =   3
                l(8) =   3

     PseudoPot. # 3 for H  read from file:
     /home/mehlhorn/pseudos/H_ONCV_PBEsol-1.0.upf
     MD5 check sum: 398ef8f67c0a7342c05c87c5e19ea467
     Pseudo is Norm-conserving, Zval =  1.0
     Generated using ONCVPSP code by D. R. Hamann
     Using radial grid of 1180 points,  2 beta functions with:
                l(1) =   0
                l(2) =   0

     atomic species   valence    mass     pseudopotential
     B                 3.00    10.81100     B ( 1.00)
     Ba               10.00   137.32700     Ba( 1.00)
     H                 1.00     1.00794     H ( 1.00)

      4 Sym. Ops. (no inversion) found ( 2 have fractional translation)

   Cartesian axes

     site n.     atom                  positions (alat units)
         1        Ba     tau(   1) = (   0.5000000   0.5127855   0.3462657  )
         2        Ba     tau(   2) = (   0.0000000   0.0000000   0.6923255  )
         3        B      tau(   3) = (   0.6102570   0.2453190   0.0000455  )
         4        B      tau(   4) = (   0.3897430   0.7802519   0.0000455  )
         5        B      tau(   5) = (   0.1102570   0.2674665   0.3461516  )
         6        B      tau(   6) = (   0.8897430   0.7581045   0.3461516  )
         7        H      tau(   7) = (   0.4340973   0.2996264   0.0001599  )
         8        H      tau(   8) = (   0.5659027   0.7259445   0.0001599  )
         9        H      tau(   9) = (   0.9340973   0.2131590   0.3460372  )
        10        H      tau(  10) = (   0.0659027   0.8124119   0.3460372  )
        11        H      tau(  11) = (   0.7220603   0.3933629  -0.0000058  )
        12        H      tau(  12) = (   0.2779397   0.6322081  -0.0000058  )
        13        H      tau(  13) = (   0.2220603   0.1194226   0.3462029  )
        14        H      tau(  14) = (   0.7779397   0.9061483   0.3462029  )
        15        H      tau(  15) = (   0.6392499   0.1457279   0.5404125  )
        16        H      tau(  16) = (   0.3607501   0.8798430   0.5404125  )
        17        H      tau(  17) = (   0.1392499   0.3670576   0.4981787  )
        18        H      tau(  18) = (   0.8607501   0.6585133   0.4981787  )
        19        H      tau(  19) = (   0.3605328   0.8798946   0.1519977  )
        20        H      tau(  20) = (   0.6394672   0.1456763   0.1519977  )
        21        H      tau(  21) = (   0.8605328   0.6584617   0.1941994  )
        22        H      tau(  22) = (   0.1394672   0.3671092   0.1941994  )

     number of k points=    27
                       cart. coord. in units 2pi/alat
        k(    1) = (   0.0000000   0.0000000   0.0000000), wk =   0.0312500
        k(    2) = (   0.0000000   0.0000000   0.3610660), wk =   0.0625000
        k(    3) = (   0.0000000   0.0000000  -0.7221320), wk =   0.0312500
        k(    4) = (   0.0000000   0.2437667   0.0000000), wk =   0.0625000
        k(    5) = (   0.0000000   0.2437667   0.3610660), wk =   0.1250000
        k(    6) = (   0.0000000   0.2437667  -0.7221320), wk =   0.0625000
        k(    7) = (   0.0000000  -0.4875333   0.0000000), wk =   0.0312500
        k(    8) = (   0.0000000  -0.4875333   0.3610660), wk =   0.0625000
        k(    9) = (   0.0000000  -0.4875333  -0.7221320), wk =   0.0312500
        k(   10) = (   0.2500000   0.0000000   0.0000000), wk =   0.0625000
        k(   11) = (   0.2500000   0.0000000   0.3610660), wk =   0.1250000
        k(   12) = (   0.2500000   0.0000000  -0.7221320), wk =   0.0625000
        k(   13) = (   0.2500000   0.2437667   0.0000000), wk =   0.1250000
        k(   14) = (   0.2500000   0.2437667   0.3610660), wk =   0.2500000
        k(   15) = (   0.2500000   0.2437667  -0.7221320), wk =   0.1250000
        k(   16) = (   0.2500000  -0.4875333   0.0000000), wk =   0.0625000
        k(   17) = (   0.2500000  -0.4875333   0.3610660), wk =   0.1250000
        k(   18) = (   0.2500000  -0.4875333  -0.7221320), wk =   0.0625000
        k(   19) = (  -0.5000000   0.0000000   0.0000000), wk =   0.0312500
        k(   20) = (  -0.5000000   0.0000000   0.3610660), wk =   0.0625000
        k(   21) = (  -0.5000000   0.0000000  -0.7221320), wk =   0.0312500
        k(   22) = (  -0.5000000   0.2437667   0.0000000), wk =   0.0625000
        k(   23) = (  -0.5000000   0.2437667   0.3610660), wk =   0.1250000
        k(   24) = (  -0.5000000   0.2437667  -0.7221320), wk =   0.0625000
        k(   25) = (  -0.5000000  -0.4875333   0.0000000), wk =   0.0312500
        k(   26) = (  -0.5000000  -0.4875333   0.3610660), wk =   0.0625000
        k(   27) = (  -0.5000000  -0.4875333  -0.7221320), wk =   0.0312500

     Initial potential from superposition of free atoms

     starting charge      47.9682, renormalised to      48.0000
     Starting wfcs are   42 randomized atomic wfcs

     Self-consistent Calculation

     iteration #  1     ecut=   100.00 Ry     beta= 0.70
     Davidson diagonalization with overlap
     ethr =  1.00E-02,  avg # of iterations =  2.0

     total energy              =    -155.94056347 Ry
     estimated scf accuracy    <       2.03146678 Ry

[...]

     End of self-consistent calculation

          k = 0.0000 0.0000 0.0000 ( 24653 PWs)   bands (ev):

   -24.0230 -24.0148  -9.5405  -9.4580  -9.2740  -9.2377  -9.2067  -9.1467
    -6.0539  -5.1065  -4.4630  -4.3078  -1.7698  -0.8569  -0.8145  -0.4447
    -0.0723  -0.0622  -0.0237   0.1104   0.2701   0.6768   0.6974   0.7388

[...]

          k =-0.5000 0.0000 0.0000 ( 24692 PWs)   bands (ev):

[...]

     highest occupied level (ev):     0.7388

!    total energy              =    -156.47308366 Ry
     estimated scf accuracy    <          3.8E-11 Ry

     The total energy is the sum of the following terms:
     one-electron contribution =     -22.80982453 Ry
     hartree contribution      =      25.58062390 Ry
     xc contribution           =     -49.01934120 Ry
     ewald contribution        =    -110.22454183 Ry

     convergence has been achieved in  11 iterations

     Forces acting on atoms (cartesian axes, Ry/au):

     atom    1 type  2   force =     0.00000000    0.00000000    0.00001189
     atom    2 type  2   force =     0.00000000    0.00000000   -0.00001189
     atom    3 type  1   force =     0.00015263    0.00075809   -0.00001357
     atom    4 type  1   force =    -0.00015263   -0.00075809   -0.00001357
     atom    5 type  1   force =     0.00015263   -0.00075809    0.00001357
     atom    6 type  1   force =    -0.00015263    0.00075809    0.00001357
     atom    7 type  3   force =     0.00653210   -0.00165762   -0.00001839
     atom    8 type  3   force =    -0.00653210    0.00165762   -0.00001839
     atom    9 type  3   force =     0.00653210    0.00165762    0.00001839
     atom   10 type  3   force =    -0.00653210   -0.00165762    0.00001839
     atom   11 type  3   force =    -0.00432012   -0.00521666    0.00000668
     atom   12 type  3   force =     0.00432012    0.00521666    0.00000668
     atom   13 type  3   force =    -0.00432012    0.00521666   -0.00000668
     atom   14 type  3   force =     0.00432012   -0.00521666   -0.00000668
     atom   15 type  3   force =    -0.00078597    0.00383419    0.00582771
     atom   16 type  3   force =     0.00078597   -0.00383419    0.00582771
     atom   17 type  3   force =    -0.00078597   -0.00383419   -0.00582771
     atom   18 type  3   force =     0.00078597    0.00383419   -0.00582771
     atom   19 type  3   force =     0.00083756   -0.00385390   -0.00583549
     atom   20 type  3   force =    -0.00083756    0.00385390   -0.00583549
     atom   21 type  3   force =     0.00083756    0.00385390    0.00583549
     atom   22 type  3   force =    -0.00083756   -0.00385390    0.00583549

     Total force =     0.027625     Total SCF correction =     0.000003

     Computing stress (Cartesian axis) and pressure

          total   stress  (Ry/bohr**3)                   (kbar)     P=      -14.45
  -0.00009143   0.00000000   0.00000000          -13.45        0.00        0.00
   0.00000000  -0.00009330   0.00000000            0.00      -13.73        0.00
   0.00000000   0.00000000  -0.00011000            0.00        0.00      -16.18

     Volume is kept fixed: isostatic pressure set to zero

     BFGS Geometry Optimization
     Energy error            =      0.0E+00 Ry
     Gradient error          =      6.5E-03 Ry/Bohr
     Cell gradient error     =      1.7E+00 kbar

     number of scf cycles    =   1
     number of bfgs steps    =   0

     enthalpy           new  =    -156.4730836598 Ry

     new trust radius        =       0.0070432274 bohr
ibrav =      8
 celldm(1) =     12.72566762
 celldm(2) =      1.02552282
 celldm(3) =      0.69207274
Input lattice vectors:
     1.00017043     0.00000000     0.00000000
     0.00000000     1.02569759     0.00000000
     0.00000000     0.00000000     0.69219069
New lattice vectors in INITIAL alat:
     1.00017043     0.00000000     0.00000000
     0.00000000     1.02569759     0.00000000
     0.00000000     0.00000000     0.69219069
New lattice vectors in NEW alat (for information only):
     1.00000000     0.00000000     0.00000000
     0.00000000     1.02552282     0.00000000
     0.00000000     0.00000000     0.69207274
Discrepancy in bohr =     0.000000    0.000000    0.000000
     new conv_thr            =            1.0E-10 Ry

     new unit-cell volume =   1462.64455 a.u.^3 (   216.74156 Ang^3 )
     density =      2.55909 g/cm^3

CELL_PARAMETERS (alat= 12.72349920)
   1.000170426   0.000000000   0.000000000
   0.000000000   1.025697592   0.000000000
   0.000000000   0.000000000   0.692190685

ATOMIC_POSITIONS (crystal)
Ba               0.5000000000        0.5000000000        0.5001005151
Ba               0.0000000000        0.0000000000        0.9998994849
B                0.6102690122        0.2392604767        0.0000641160
B                0.3897309878        0.7607395233        0.0000641160
B                0.1102690122        0.2607395233        0.4999358840
B                0.8897309878        0.7392604767        0.4999358840
H                0.4346106413        0.2920286973        0.0002288453
H                0.5653893587        0.7079713027        0.0002288453
H                0.9346106413        0.2079713027        0.4997711547
H                0.0653893587        0.7920286973        0.4997711547
H                0.7217207290        0.3831552300       -0.0000076130
H                0.2782792710        0.6168447700       -0.0000076130
H                0.2217207290        0.1168447700        0.5000076130
H                0.7782792710        0.8831552300        0.5000076130
H                0.6391881514        0.1423882282        0.7811599261
H                0.3608118486        0.8576117718        0.7811599261
H                0.1391881514        0.3576117718        0.7188400739
H                0.8608118486        0.6423882282        0.7188400739
H                0.3605986588        0.8576605704        0.2188624526
H                0.6394013412        0.1423394296        0.2188624526
H                0.8605986588        0.6423394296        0.2811375474
H                0.1394013412        0.3576605704        0.2811375474

     Writing config-only to output data dir ./pwscf.save/ :
     XML data file
     NEW-OLD atomic charge density approx. for the potential

[...]

     Volume is kept fixed: isostatic pressure set to zero
     Energy error            =      6.2E-04 Ry
     Gradient error          =      4.2E-03 Ry/Bohr
     Cell gradient error     =      1.4E+00 kbar

[...]

     enthalpy           old  =    -156.4730836598 Ry
     enthalpy           new  =    -156.4737085127 Ry

     CASE: enthalpy          _new < enthalpy          _old

[...]

     Threshold (ethr) on eigenvalues was too large:
     Diagonalizing with lowered threshold

     Davidson diagonalization with overlap
     ethr =  1.31E-09,  avg # of iterations =  4.0

[...]

     small trust_radius: resetting bfgs history

[...]

     Volume is kept fixed: isostatic pressure set to zero
     Energy error            =      5.8E-09 Ry
     Gradient error          =      1.9E-05 Ry/Bohr
     Cell gradient error     =      3.9E-03 kbar

     number of scf cycles    =  56
     number of bfgs steps    =  55

     enthalpy           old  =    -156.4743984505 Ry
     enthalpy           new  =    -156.4743984563 Ry

     CASE: enthalpy          _new < enthalpy          _old

     WARNING: bfgs curvature condition failed, Theta= 0.963
     Message from routine bfgs :: compute_trust_radius:
     history already reset at previous step: stopping
     small trust_radius: resetting bfgs history

     new trust radius        =       0.0000190576 bohr
ibrav =      8
 celldm(1) =     12.81287702
 celldm(2) =      1.01795100
 celldm(3) =      0.68308060
Input lattice vectors:
     1.00702463     0.00000000     0.00000000
     0.00000000     1.02510173     0.00000000
     0.00000000     0.00000000     0.68787898
New lattice vectors in INITIAL alat:
     1.00702463     0.00000000     0.00000000
     0.00000000     1.02510173     0.00000000
     0.00000000     0.00000000     0.68787898
New lattice vectors in NEW alat (for information only):
     1.00000000     0.00000000     0.00000000
     0.00000000     1.01795100     0.00000000
     0.00000000     0.00000000     0.68308060
Discrepancy in bohr =     0.000000    0.000000    0.000000
     new conv_thr            =            1.0E-12 Ry

     new unit-cell volume =   1462.64455 a.u.^3 (   216.74156 Ang^3 )
     density =      2.55909 g/cm^3

[...]

ATOMIC_POSITIONS (crystal)
Ba               0.5000000000        0.5000000000        0.5000163392
Ba               0.0000000000        0.0000000000        0.9999836608
B                0.6141966727        0.2422102342       -0.0000057352
B                0.3858033273        0.7577897658       -0.0000057352
B                0.1141966727        0.2577897658        0.5000057352
B                0.8858033273        0.7422102342        0.5000057352
H                0.4394030413        0.2908555692       -0.0000215049
H                0.5605969587        0.7091444308       -0.0000215049
H                0.9394030413        0.2091444308        0.5000215049
H                0.0605969587        0.7908555692        0.5000215049
H                0.7208817242        0.3878960314        0.0000198559
H                0.2791182758        0.6121039686        0.0000198559
H                0.2208817242        0.1121039686        0.4999801441
H                0.7791182758        0.8878960314        0.4999801441
H                0.6450297372        0.1464688864        0.7807036548
H                0.3549702628        0.8535311136        0.7807036548
H                0.1450297372        0.3535311136        0.7192963452
H                0.8549702628        0.6464688864        0.7192963452
H                0.3549856714        0.8535186658        0.2192966269
H                0.6450143286        0.1464813342        0.2192966269
H                0.8549856714        0.6464813342        0.2807033731
H                0.1450143286        0.3535186658        0.2807033731

     Writing config-only to output data dir ./pwscf.save/ :
     XML data file
     NEW-OLD atomic charge density approx. for the potential

     Self-consistent Calculation

[...]

     Threshold (ethr) on eigenvalues was too large:
     Diagonalizing with lowered threshold

     Davidson diagonalization with overlap
     ethr =  7.44E-13,  avg # of iterations =  4.4

[...]

     total energy              =    -156.47439846 Ry
     estimated scf accuracy    <          1.8E-11 Ry

     iteration #  3     ecut=   100.00 Ry     beta= 0.70
     Davidson diagonalization with overlap
     ethr =  1.00E-13,  avg # of iterations =  2.0

     End of self-consistent calculation

[...]

          k = 0.2483-0.4878-0.7269 ( 24716 PWs)   bands (ev):

[...]

          k =-0.4965-0.4878-0.7269 ( 24720 PWs)   bands (ev):

   -23.9942 -23.9942  -9.6751  -9.6751  -9.3216  -9.3216  -9.2729  -9.2729
    -5.0683  -5.0683  -4.6023  -4.6023  -1.6011  -1.6011  -0.9683  -0.9683
     0.0968   0.0968   0.2039   0.2039   0.2910   0.2910   0.5419   0.5419

     highest occupied level (ev):     0.6777

!    total energy              =    -156.47439846 Ry
     estimated scf accuracy    <          5.4E-13 Ry

     The total energy is the sum of the following terms:
     one-electron contribution =     -24.08382570 Ry
     hartree contribution      =      26.21733544 Ry
     xc contribution           =     -49.10722873 Ry
     ewald contribution        =    -109.50067947 Ry

     convergence has been achieved in   3 iterations

     Forces acting on atoms (cartesian axes, Ry/au):

     atom    1 type  2   force =     0.00000000    0.00000000   -0.00001704
     atom    2 type  2   force =     0.00000000    0.00000000    0.00001704
     atom    3 type  1   force =    -0.00000236   -0.00000043    0.00000808
     atom    4 type  1   force =     0.00000236    0.00000043    0.00000808
     atom    5 type  1   force =    -0.00000236    0.00000043   -0.00000808
     atom    6 type  1   force =     0.00000236   -0.00000043   -0.00000808
     atom    7 type  3   force =     0.00000240    0.00000466    0.00000398
     atom    8 type  3   force =    -0.00000240   -0.00000466    0.00000398
     atom    9 type  3   force =     0.00000240   -0.00000466   -0.00000398
     atom   10 type  3   force =    -0.00000240    0.00000466   -0.00000398
     atom   11 type  3   force =    -0.00000630   -0.00000233   -0.00001424
     atom   12 type  3   force =     0.00000630    0.00000233   -0.00001424
     atom   13 type  3   force =    -0.00000630    0.00000233    0.00001424
     atom   14 type  3   force =     0.00000630   -0.00000233    0.00001424
     atom   15 type  3   force =     0.00000400    0.00001043    0.00000781
     atom   16 type  3   force =    -0.00000400   -0.00001043    0.00000781
     atom   17 type  3   force =     0.00000400   -0.00001043   -0.00000781
     atom   18 type  3   force =    -0.00000400    0.00001043   -0.00000781
     atom   19 type  3   force =    -0.00000238    0.00001023    0.00000153
     atom   20 type  3   force =     0.00000238   -0.00001023    0.00000153
     atom   21 type  3   force =    -0.00000238   -0.00001023   -0.00000153
     atom   22 type  3   force =     0.00000238    0.00001023   -0.00000153

     Total force =     0.000057     Total SCF correction =     0.000000

     Computing stress (Cartesian axis) and pressure

          total   stress  (Ry/bohr**3)                   (kbar)     P=       -3.68
  -0.00002498   0.00000000   0.00000000           -3.67        0.00        0.00
   0.00000000  -0.00002501   0.00000000            0.00       -3.68        0.00
   0.00000000   0.00000000  -0.00002502            0.00        0.00       -3.68

     Volume is kept fixed: isostatic pressure set to zero
     Message from routine bfgs:
     history already reset at previous step: exiting
     Energy error            =      4.1E-09 Ry
     Gradient error          =      1.7E-05 Ry/Bohr
     Cell gradient error     =      3.5E-03 kbar
ibrav =      8
 celldm(1) =     12.81287702
 celldm(2) =      1.01795100
 celldm(3) =      0.68308060
Input lattice vectors:
     1.00702463     0.00000000     0.00000000
     0.00000000     1.02510173     0.00000000
     0.00000000     0.00000000     0.68787898
New lattice vectors in INITIAL alat:
     1.00702463     0.00000000     0.00000000
     0.00000000     1.02510173     0.00000000
     0.00000000     0.00000000     0.68787898
New lattice vectors in NEW alat (for information only):
     1.00000000     0.00000000     0.00000000
     0.00000000     1.01795100     0.00000000
     0.00000000     0.00000000     0.68308060
Discrepancy in bohr =     0.000000    0.000000    0.000000

     bfgs failed after  57 scf cycles and  56 bfgs steps, convergence not achieved
     (criteria: energy <  1.0E-05 Ry, force <  1.0E-05 Ry/Bohr, cell <  5.0E-01 kbar)

     End of BFGS Geometry Optimization

     Final enthalpy           =    -156.4743984604 Ry

     File ./pwscf.bfgs deleted, as requested
Begin final coordinates
     new unit-cell volume =   1462.64455 a.u.^3 (   216.74156 Ang^3 )
     density =      2.55909 g/cm^3

CELL_PARAMETERS (alat= 12.72349920)
   1.007024626   0.000000000   0.000000000
   0.000000000   1.025101725   0.000000000
   0.000000000   0.000000000   0.687878982

ATOMIC_POSITIONS (crystal)
Ba               0.5000000000        0.5000000000        0.5000163392
Ba               0.0000000000        0.0000000000        0.9999836608
B                0.6141966727        0.2422102342       -0.0000057352
B                0.3858033273        0.7577897658       -0.0000057352
B                0.1141966727        0.2577897658        0.5000057352
B                0.8858033273        0.7422102342        0.5000057352
H                0.4394030413        0.2908555692       -0.0000215049
H                0.5605969587        0.7091444308       -0.0000215049
H                0.9394030413        0.2091444308        0.5000215049
H                0.0605969587        0.7908555692        0.5000215049
H                0.7208817242        0.3878960314        0.0000198559
H                0.2791182758        0.6121039686        0.0000198559
H                0.2208817242        0.1121039686        0.4999801441
H                0.7791182758        0.8878960314        0.4999801441
H                0.6450297372        0.1464688864        0.7807036548
H                0.3549702628        0.8535311136        0.7807036548
H                0.1450297372        0.3535311136        0.7192963452
H                0.8549702628        0.6464688864        0.7192963452
H                0.3549856714        0.8535186658        0.2192966269
H                0.6450143286        0.1464813342        0.2192966269
H                0.8549856714        0.6464813342        0.2807033731
H                0.1450143286        0.3535186658        0.2807033731
End final coordinates

     Writing config-only to output data dir ./pwscf.save/ :
     XML data file

     Writing all to output data dir ./pwscf.save/ :
     XML data file, charge density, pseudopotentials, collected wavefunctions

     General routines

     Parallel routines

   This run was terminated on:  18: 3:36  11Jul2024

   JOB DONE.