     Program PWSCF v.7.3.1 starts on 12Jul2024 at 15: 7: 2

     Waiting for input...
     Reading input from standard input

     Current dimensions of program PWSCF are:
     Max number of different atomic species (ntypx) = 10
     Max number of k-points (npk) =  40000
     Max angular momentum in pseudopotentials (lmaxx) =  4

     R & G space division:  proc/nbgrp/npool/nimage =      16
     Subspace diagonalization in iterative solution of the eigenvalue problem:
     a serial algorithm will be used

     Using Slab Decomposition

     Title:
     volume variation

     bravais-lattice index     =            8
     lattice parameter (alat)  =      12.7853  a.u.
     unit-cell volume          =    1484.0491 (a.u.)^3
     number of atoms/cell      =           22
     number of atomic types    =            3
     number of electrons       =        48.00
     number of Kohn-Sham states=           24
     kinetic-energy cutoff     =     100.0000  Ry
     charge density cutoff     =     800.0000  Ry
     scf convergence threshold =      1.0E-10
     mixing beta               =       0.7000
     number of iterations used =            8  plain     mixing
     energy convergence thresh.=      1.0E-05
     force convergence thresh. =      1.0E-05
     press convergence thresh. =      5.0E-01
     Exchange-correlation= PBESOL
                           (   1   4  10   8   0   0   0)
     nstep                     =          300

     celldm(1)=  12.785265  celldm(2)=   1.025571  celldm(3)=   0.692394
     celldm(4)=   0.000000  celldm(5)=   0.000000  celldm(6)=   0.000000

     crystal axes: (cart. coord. in units of alat)
               a(1) = (   1.000000   0.000000   0.000000 )
               a(2) = (   0.000000   1.025571   0.000000 )
               a(3) = (   0.000000   0.000000   0.692394 )

     reciprocal axes: (cart. coord. in units 2 pi/alat)
               b(1) = (  1.000000  0.000000  0.000000 )
               b(2) = (  0.000000  0.975067  0.000000 )
               b(3) = (  0.000000  0.000000  1.444264 )

     PseudoPot. # 1 for B  read from file:
     /home/mehlhorn/pseudos/b_pbesol_v1.4.uspp.F.UPF
     MD5 check sum: 369b69bef2c3aeed4453bd8b804fd6a8
     Pseudo is Ultrasoft + core correction, Zval =  3.0
     Generated by new atomic code, or converted to UPF format
     Using radial grid of  781 points,  4 beta functions with:
                l(1) =   0
                l(2) =   0
                l(3) =   1
                l(4) =   1
     Q(r) pseudized with  8 coefficients,  rinner =    1.100   1.100   1.100

     PseudoPot. # 2 for Ba read from file:
     /home/mehlhorn/pseudos/Ba.nc.z_10.oncvpsp4.dojo.v4-sp.upf
     MD5 check sum: c10ed334bb677c0554edec7181ce9143
     Pseudo is Norm-conserving + core correction, Zval = 10.0
     Generated using ONCVPSP code by D. R. Hamann
     Using radial grid of 1938 points,  8 beta functions with:
                l(1) =   0
                l(2) =   0
                l(3) =   1
                l(4) =   1
                l(5) =   2
                l(6) =   2
                l(7) =   3
                l(8) =   3

     PseudoPot. # 3 for H  read from file:
     /home/mehlhorn/pseudos/H_ONCV_PBEsol-1.0.upf
     MD5 check sum: 398ef8f67c0a7342c05c87c5e19ea467
     Pseudo is Norm-conserving, Zval =  1.0
     Generated using ONCVPSP code by D. R. Hamann
     Using radial grid of 1180 points,  2 beta functions with:
                l(1) =   0
                l(2) =   0

     atomic species   valence    mass     pseudopotential
     B                 3.00    10.81100     B ( 1.00)
     Ba               10.00   137.32700     Ba( 1.00)
     H                 1.00     1.00794     H ( 1.00)

      4 Sym. Ops. (no inversion) found ( 2 have fractional translation)

   Cartesian axes

     site n.     atom                  positions (alat units)
         1        Ba     tau(   1) = (   0.5000000   0.5127855   0.3462657  )
         2        Ba     tau(   2) = (   0.0000000   0.0000000   0.6923255  )
         3        B      tau(   3) = (   0.6102570   0.2453190   0.0000455  )
         4        B      tau(   4) = (   0.3897430   0.7802519   0.0000455  )
         5        B      tau(   5) = (   0.1102570   0.2674665   0.3461516  )
         6        B      tau(   6) = (   0.8897430   0.7581045   0.3461516  )
         7        H      tau(   7) = (   0.4340973   0.2996264   0.0001599  )
         8        H      tau(   8) = (   0.5659027   0.7259445   0.0001599  )
         9        H      tau(   9) = (   0.9340973   0.2131590   0.3460372  )
        10        H      tau(  10) = (   0.0659027   0.8124119   0.3460372  )
        11        H      tau(  11) = (   0.7220603   0.3933629  -0.0000058  )
        12        H      tau(  12) = (   0.2779397   0.6322081  -0.0000058  )
        13        H      tau(  13) = (   0.2220603   0.1194226   0.3462029  )
        14        H      tau(  14) = (   0.7779397   0.9061483   0.3462029  )
        15        H      tau(  15) = (   0.6392499   0.1457279   0.5404125  )
        16        H      tau(  16) = (   0.3607501   0.8798430   0.5404125  )
        17        H      tau(  17) = (   0.1392499   0.3670576   0.4981787  )
        18        H      tau(  18) = (   0.8607501   0.6585133   0.4981787  )
        19        H      tau(  19) = (   0.3605328   0.8798946   0.1519977  )
        20        H      tau(  20) = (   0.6394672   0.1456763   0.1519977  )
        21        H      tau(  21) = (   0.8605328   0.6584617   0.1941994  )
        22        H      tau(  22) = (   0.1394672   0.3671092   0.1941994  )

     number of k points=    27
                       cart. coord. in units 2pi/alat
        k(    1) = (   0.0000000   0.0000000   0.0000000), wk =   0.0312500
        k(    2) = (   0.0000000   0.0000000   0.3610660), wk =   0.0625000
        k(    3) = (   0.0000000   0.0000000  -0.7221320), wk =   0.0312500
        k(    4) = (   0.0000000   0.2437667   0.0000000), wk =   0.0625000
        k(    5) = (   0.0000000   0.2437667   0.3610660), wk =   0.1250000
        k(    6) = (   0.0000000   0.2437667  -0.7221320), wk =   0.0625000
        k(    7) = (   0.0000000  -0.4875333   0.0000000), wk =   0.0312500
        k(    8) = (   0.0000000  -0.4875333   0.3610660), wk =   0.0625000
        k(    9) = (   0.0000000  -0.4875333  -0.7221320), wk =   0.0312500
        k(   10) = (   0.2500000   0.0000000   0.0000000), wk =   0.0625000
        k(   11) = (   0.2500000   0.0000000   0.3610660), wk =   0.1250000
        k(   12) = (   0.2500000   0.0000000  -0.7221320), wk =   0.0625000
        k(   13) = (   0.2500000   0.2437667   0.0000000), wk =   0.1250000
        k(   14) = (   0.2500000   0.2437667   0.3610660), wk =   0.2500000
        k(   15) = (   0.2500000   0.2437667  -0.7221320), wk =   0.1250000
        k(   16) = (   0.2500000  -0.4875333   0.0000000), wk =   0.0625000
        k(   17) = (   0.2500000  -0.4875333   0.3610660), wk =   0.1250000
        k(   18) = (   0.2500000  -0.4875333  -0.7221320), wk =   0.0625000
        k(   19) = (  -0.5000000   0.0000000   0.0000000), wk =   0.0312500
        k(   20) = (  -0.5000000   0.0000000   0.3610660), wk =   0.0625000
        k(   21) = (  -0.5000000   0.0000000  -0.7221320), wk =   0.0312500
        k(   22) = (  -0.5000000   0.2437667   0.0000000), wk =   0.0625000
        k(   23) = (  -0.5000000   0.2437667   0.3610660), wk =   0.1250000
        k(   24) = (  -0.5000000   0.2437667  -0.7221320), wk =   0.0625000
        k(   25) = (  -0.5000000  -0.4875333   0.0000000), wk =   0.0312500
        k(   26) = (  -0.5000000  -0.4875333   0.3610660), wk =   0.0625000
        k(   27) = (  -0.5000000  -0.4875333  -0.7221320), wk =   0.0312500

     Initial potential from superposition of free atoms

     starting charge      47.9682, renormalised to      48.0000
     Starting wfcs are   42 randomized atomic wfcs

     Self-consistent Calculation

     iteration #  1     ecut=   100.00 Ry     beta= 0.70
     Davidson diagonalization with overlap
     ethr =  1.00E-02,  avg # of iterations =  2.0

     total energy              =    -155.94644251 Ry
     estimated scf accuracy    <       1.99932215 Ry

[...]

     End of self-consistent calculation

          k = 0.0000 0.0000 0.0000 ( 25053 PWs)   bands (ev):

   -24.1667 -24.1591  -9.6543  -9.5778  -9.4061  -9.3726  -9.3406  -9.2845
    -6.0932  -5.1589  -4.5533  -4.3936  -1.8193  -0.9121  -0.8903  -0.5071
    -0.1430  -0.1388  -0.1069   0.0360   0.1906   0.5901   0.6138   0.6546

[...]

          k =-0.5000 0.0000 0.0000 ( 24988 PWs)   bands (ev):

[...]

     highest occupied level (ev):     0.6546

!    total energy              =    -156.47040315 Ry
     estimated scf accuracy    <          6.9E-11 Ry

     The total energy is the sum of the following terms:
     one-electron contribution =     -23.59542148 Ry
     hartree contribution      =      25.76335391 Ry
     xc contribution           =     -48.94628777 Ry
     ewald contribution        =    -109.69204782 Ry

     convergence has been achieved in  11 iterations

     Forces acting on atoms (cartesian axes, Ry/au):

     atom    1 type  2   force =     0.00000000    0.00000000    0.00001109
     atom    2 type  2   force =     0.00000000    0.00000000   -0.00001109
     atom    3 type  1   force =     0.00023566    0.00117792   -0.00001413
     atom    4 type  1   force =    -0.00023566   -0.00117792   -0.00001413
     atom    5 type  1   force =     0.00023566   -0.00117792    0.00001413
     atom    6 type  1   force =    -0.00023566    0.00117792    0.00001413
     atom    7 type  3   force =     0.01026022   -0.00260615   -0.00001951
     atom    8 type  3   force =    -0.01026022    0.00260615   -0.00001951
     atom    9 type  3   force =     0.01026022    0.00260615    0.00001951
     atom   10 type  3   force =    -0.01026022   -0.00260615    0.00001951
     atom   11 type  3   force =    -0.00678212   -0.00819944    0.00000730
     atom   12 type  3   force =     0.00678212    0.00819944    0.00000730
     atom   13 type  3   force =    -0.00678212    0.00819944   -0.00000730
     atom   14 type  3   force =     0.00678212   -0.00819944   -0.00000730
     atom   15 type  3   force =    -0.00125160    0.00602720    0.00915640
     atom   16 type  3   force =     0.00125160   -0.00602720    0.00915640
     atom   17 type  3   force =    -0.00125160   -0.00602720   -0.00915640
     atom   18 type  3   force =     0.00125160    0.00602720   -0.00915640
     atom   19 type  3   force =     0.00130609   -0.00604703   -0.00916307
     atom   20 type  3   force =    -0.00130609    0.00604703   -0.00916307
     atom   21 type  3   force =     0.00130609    0.00604703    0.00916307
     atom   22 type  3   force =    -0.00130609   -0.00604703    0.00916307

     Total force =     0.043391     Total SCF correction =     0.000005

     Computing stress (Cartesian axis) and pressure

          total   stress  (Ry/bohr**3)                   (kbar)     P=      -22.39
  -0.00014168   0.00000000   0.00000000          -20.84        0.00        0.00
   0.00000000  -0.00014454   0.00000000            0.00      -21.26        0.00
[...]
     1.01173760     0.00000000     0.00000000
     0.00000000     1.02505798     0.00000000
     0.00000000     0.00000000     0.68470386
New lattice vectors in INITIAL alat:
     1.01173760     0.00000000     0.00000000
     0.00000000     1.02505798     0.00000000
     0.00000000     0.00000000     0.68470386
New lattice vectors in NEW alat (for information only):
     1.00000000     0.00000000     0.00000000
     0.00000000     1.01316584     0.00000000
     0.00000000     0.00000000     0.67676032
Discrepancy in bohr =     0.000000    0.000000    0.000000
     new conv_thr            =            1.0E-12 Ry

     new unit-cell volume =   1484.04910 a.u.^3 (   219.91339 Ang^3 )
     density =      2.52218 g/cm^3

[...]

ATOMIC_POSITIONS (crystal)
Ba               0.5000000000        0.5000000000        0.4999993585
Ba               0.0000000000        0.0000000000        1.0000006415
B                0.6168789726        0.2444364138        0.0000022790
B                0.3831210274        0.7555635862        0.0000022790
B                0.1168789726        0.2555635862        0.4999977210
B                0.8831210274        0.7444364138        0.4999977210
H                0.4428291830        0.2897901053       -0.0000216083
H                0.5571708170        0.7102098947       -0.0000216083
H                0.9428291830        0.2102098947        0.5000216083
H                0.0571708170        0.7897901053        0.5000216083
H                0.7198622359        0.3912711536        0.0000069021
H                0.2801377641        0.6087288464        0.0000069021
H                0.2198622359        0.1087288464        0.4999930979
H                0.7801377641        0.8912711536        0.4999930979
H                0.6491211075        0.1497540776        0.7806414041
H                0.3508788925        0.8502459224        0.7806414041
H                0.1491211075        0.3502459224        0.7193585959
H                0.8508788925        0.6497540776        0.7193585959
H                0.3508933869        0.8502451997        0.2193698235
H                0.6491066131        0.1497548003        0.2193698235
H                0.8508933869        0.6497548003        0.2806301765
H                0.1491066131        0.3502451997        0.2806301765

     Writing config-only to output data dir ./pwscf.save/ :
     XML data file
     NEW-OLD atomic charge density approx. for the potential

[...]

     Threshold (ethr) on eigenvalues was too large:
     Diagonalizing with lowered threshold

     Davidson diagonalization with overlap
     ethr =  4.87E-11,  avg # of iterations =  4.2

[...]

     Volume is kept fixed: isostatic pressure set to zero
     Energy error            =      8.5E-09 Ry
     Gradient error          =      7.6E-06 Ry/Bohr
     Cell gradient error     =      1.9E-03 kbar
ibrav =      8
 celldm(1) =     12.93533304
 celldm(2) =      1.01316584
 celldm(3) =      0.67676032
Input lattice vectors:
     1.01173760     0.00000000     0.00000000
     0.00000000     1.02505798     0.00000000
     0.00000000     0.00000000     0.68470386
New lattice vectors in INITIAL alat:
     1.01173760     0.00000000     0.00000000
     0.00000000     1.02505798     0.00000000
     0.00000000     0.00000000     0.68470386
New lattice vectors in NEW alat (for information only):
     1.00000000     0.00000000     0.00000000
     0.00000000     1.01316584     0.00000000
     0.00000000     0.00000000     0.67676032
Discrepancy in bohr =     0.000000    0.000000    0.000000

     bfgs converged in  58 scf cycles and  57 bfgs steps
     (criteria: energy <  1.0E-05 Ry, force <  1.0E-05 Ry/Bohr, cell <  5.0E-01 kbar)

     End of BFGS Geometry Optimization

     Final enthalpy           =    -156.4737495073 Ry

     File ./pwscf.bfgs deleted, as requested
Begin final coordinates
     new unit-cell volume =   1484.04910 a.u.^3 (   219.91339 Ang^3 )
     density =      2.52218 g/cm^3

CELL_PARAMETERS (alat= 12.78526473)
   1.011737599   0.000000000   0.000000000
   0.000000000   1.025057977   0.000000000
   0.000000000   0.000000000   0.684703860

ATOMIC_POSITIONS (crystal)
Ba               0.5000000000        0.5000000000        0.4999993585
Ba               0.0000000000        0.0000000000        1.0000006415
B                0.6168789726        0.2444364138        0.0000022790
B                0.3831210274        0.7555635862        0.0000022790
B                0.1168789726        0.2555635862        0.4999977210
B                0.8831210274        0.7444364138        0.4999977210
H                0.4428291830        0.2897901053       -0.0000216083
H                0.5571708170        0.7102098947       -0.0000216083
H                0.9428291830        0.2102098947        0.5000216083
H                0.0571708170        0.7897901053        0.5000216083
H                0.7198622359        0.3912711536        0.0000069021
H                0.2801377641        0.6087288464        0.0000069021
H                0.2198622359        0.1087288464        0.4999930979
H                0.7801377641        0.8912711536        0.4999930979
H                0.6491211075        0.1497540776        0.7806414041
H                0.3508788925        0.8502459224        0.7806414041
H                0.1491211075        0.3502459224        0.7193585959
H                0.8508788925        0.6497540776        0.7193585959
H                0.3508933869        0.8502451997        0.2193698235
H                0.6491066131        0.1497548003        0.2193698235
H                0.8508933869        0.6497548003        0.2806301765
H                0.1491066131        0.3502451997        0.2806301765
End final coordinates

     Writing config-only to output data dir ./pwscf.save/ :
     XML data file

     Final scf calculation at the relaxed structure.
     The G-vectors are recalculated for the final unit cell
     Results may differ from those at the preceding step.

     Using Slab Decomposition

     Title:
     volume variation

     bravais-lattice index     =            8
     lattice parameter (alat)  =      12.7853  a.u.
     unit-cell volume          =    1484.0491 (a.u.)^3
     number of atoms/cell      =           22
     number of atomic types    =            3
     number of electrons       =        48.00
     number of Kohn-Sham states=           24
     kinetic-energy cutoff     =     100.0000  Ry
     charge density cutoff     =     800.0000  Ry
     scf convergence threshold =      1.0E-12
     mixing beta               =       0.7000
     number of iterations used =            8  plain     mixing
     press convergence thresh. =      5.0E-01
     Exchange-correlation= PBESOL
                           (   1   4  10   8   0   0   0)

     celldm(1)=  12.785265  celldm(2)=   1.025571  celldm(3)=   0.692394
     celldm(4)=   0.000000  celldm(5)=   0.000000  celldm(6)=   0.000000

     crystal axes: (cart. coord. in units of alat)
               a(1) = (   1.011738   0.000000   0.000000 )
               a(2) = (   0.000000   1.025058   0.000000 )
               a(3) = (   0.000000   0.000000   0.684704 )

     reciprocal axes: (cart. coord. in units 2 pi/alat)
               b(1) = (  0.988399  0.000000  0.000000 )
               b(2) = (  0.000000  0.975555  0.000000 )
               b(3) = (  0.000000  0.000000  1.460485 )

     PseudoPot. # 1 for B  read from file:
     /home/mehlhorn/pseudos/b_pbesol_v1.4.uspp.F.UPF
     MD5 check sum: 369b69bef2c3aeed4453bd8b804fd6a8
     Pseudo is Ultrasoft + core correction, Zval =  3.0
     Generated by new atomic code, or converted to UPF format
     Using radial grid of  781 points,  4 beta functions with:
                l(1) =   0
                l(2) =   0
                l(3) =   1
                l(4) =   1
     Q(r) pseudized with  8 coefficients,  rinner =    1.100   1.100   1.100

     PseudoPot. # 2 for Ba read from file:
     /home/mehlhorn/pseudos/Ba.nc.z_10.oncvpsp4.dojo.v4-sp.upf
     MD5 check sum: c10ed334bb677c0554edec7181ce9143
     Pseudo is Norm-conserving + core correction, Zval = 10.0
     Generated using ONCVPSP code by D. R. Hamann
     Using radial grid of 1938 points,  8 beta functions with:
                l(1) =   0
                l(2) =   0
                l(3) =   1
                l(4) =   1
                l(5) =   2
                l(6) =   2
                l(7) =   3
                l(8) =   3

     PseudoPot. # 3 for H  read from file:
     /home/mehlhorn/pseudos/H_ONCV_PBEsol-1.0.upf
     MD5 check sum: 398ef8f67c0a7342c05c87c5e19ea467
     Pseudo is Norm-conserving, Zval =  1.0
     Generated using ONCVPSP code by D. R. Hamann
     Using radial grid of 1180 points,  2 beta functions with:
                l(1) =   0
                l(2) =   0

     atomic species   valence    mass     pseudopotential
     B                 3.00    10.81100     B ( 1.00)
     Ba               10.00   137.32700     Ba( 1.00)
     H                 1.00     1.00794     H ( 1.00)

      4 Sym. Ops. (no inversion) found ( 2 have fractional translation)

   Cartesian axes

     site n.     atom                  positions (alat units)
         1        Ba     tau(   1) = (   0.5058688   0.5125290   0.3423515  )
         2        Ba     tau(   2) = (   0.0000000   0.0000000   0.6847043  )
         3        B      tau(   3) = (   0.6241197   0.2505615   0.0000016  )
         4        B      tau(   4) = (   0.3876179   0.7744965   0.0000016  )
         5        B      tau(   5) = (   0.1182509   0.2619675   0.3423504  )
         6        B      tau(   6) = (   0.8934867   0.7630905   0.3423504  )
         7        H      tau(   7) = (   0.4480269   0.2970517  -0.0000148  )
         8        H      tau(   8) = (   0.5637107   0.7280063  -0.0000148  )
         9        H      tau(   9) = (   0.9538957   0.2154773   0.3423667  )
        10        H      tau(  10) = (   0.0578419   0.8095806   0.3423667  )
        11        H      tau(  11) = (   0.7283117   0.4010756   0.0000047  )
        12        H      tau(  12) = (   0.2834259   0.6239824   0.0000047  )
        13        H      tau(  13) = (   0.2224429   0.1114534   0.3423472  )
        14        H      tau(  14) = (   0.7892947   0.9136046   0.3423472  )
        15        H      tau(  15) = (   0.6567402   0.1535066   0.5345082  )
        16        H      tau(  16) = (   0.3549974   0.8715514   0.5345082  )
        17        H      tau(  17) = (   0.1508714   0.3590224   0.4925476  )
        18        H      tau(  18) = (   0.8608662   0.6660356   0.4925476  )
        19        H      tau(  19) = (   0.3550120   0.8715506   0.1502034  )
        20        H      tau(  20) = (   0.6567256   0.1535074   0.1502034  )
        21        H      tau(  21) = (   0.8608808   0.6660363   0.1921486  )
        22        H      tau(  22) = (   0.1508568   0.3590216   0.1921486  )

     number of k points=    27
                       cart. coord. in units 2pi/alat
        k(    1) = (   0.0000000   0.0000000   0.0000000), wk =   0.0312500
        k(    2) = (   0.0000000   0.0000000   0.3651214), wk =   0.0625000
        k(    3) = (   0.0000000   0.0000000  -0.7302427), wk =   0.0312500
        k(    4) = (   0.0000000   0.2438886   0.0000000), wk =   0.0625000
        k(    5) = (   0.0000000   0.2438886   0.3651214), wk =   0.1250000
        k(    6) = (   0.0000000   0.2438886  -0.7302427), wk =   0.0625000
        k(    7) = (   0.0000000  -0.4877773   0.0000000), wk =   0.0312500
        k(    8) = (   0.0000000  -0.4877773   0.3651214), wk =   0.0625000
        k(    9) = (   0.0000000  -0.4877773  -0.7302427), wk =   0.0312500
        k(   10) = (   0.2470996   0.0000000   0.0000000), wk =   0.0625000
        k(   11) = (   0.2470996   0.0000000   0.3651214), wk =   0.1250000
        k(   12) = (   0.2470996   0.0000000  -0.7302427), wk =   0.0625000
        k(   13) = (   0.2470996   0.2438886   0.0000000), wk =   0.1250000
        k(   14) = (   0.2470996   0.2438886   0.3651214), wk =   0.2500000
        k(   15) = (   0.2470996   0.2438886  -0.7302427), wk =   0.1250000
        k(   16) = (   0.2470996  -0.4877773   0.0000000), wk =   0.0625000
        k(   17) = (   0.2470996  -0.4877773   0.3651214), wk =   0.1250000
        k(   18) = (   0.2470996  -0.4877773  -0.7302427), wk =   0.0625000
        k(   19) = (  -0.4941993   0.0000000   0.0000000), wk =   0.0312500
        k(   20) = (  -0.4941993   0.0000000   0.3651214), wk =   0.0625000
        k(   21) = (  -0.4941993   0.0000000  -0.7302427), wk =   0.0312500
        k(   22) = (  -0.4941993   0.2438886   0.0000000), wk =   0.0625000
        k(   23) = (  -0.4941993   0.2438886   0.3651214), wk =   0.1250000
        k(   24) = (  -0.4941993   0.2438886  -0.7302427), wk =   0.0625000
        k(   25) = (  -0.4941993  -0.4877773   0.0000000), wk =   0.0312500
        k(   26) = (  -0.4941993  -0.4877773   0.3651214), wk =   0.0625000
        k(   27) = (  -0.4941993  -0.4877773  -0.7302427), wk =   0.0312500

     Initial potential from superposition of free atoms

     starting charge      47.9682, renormalised to      48.0000
     Starting wfcs are   42 randomized atomic wfcs

     Self-consistent Calculation

[...]

     total energy              =    -156.47374959 Ry
     estimated scf accuracy    <          1.2E-12 Ry

     iteration # 14     ecut=   100.00 Ry     beta= 0.70
     Davidson diagonalization with overlap
     ethr =  1.00E-13,  avg # of iterations =  1.0

     End of self-consistent calculation

[...]

          k = 0.2471-0.4878-0.7302 ( 25092 PWs)   bands (ev):

[...]

          k =-0.4942-0.4878-0.7302 ( 25056 PWs)   bands (ev):

   -24.1272 -24.1272  -9.7958  -9.7958  -9.4412  -9.4412  -9.4009  -9.4009
    -5.1670  -5.1670  -4.7215  -4.7215  -1.6745  -1.6745  -1.0774  -1.0774
    -0.0225  -0.0225   0.1188   0.1188   0.1722   0.1722   0.4279   0.4279

     highest occupied level (ev):     0.5565

!    total energy              =    -156.47374959 Ry
     estimated scf accuracy    <          8.3E-15 Ry

     The total energy is the sum of the following terms:
     one-electron contribution =     -25.75186103 Ry
     hartree contribution      =      26.84262059 Ry
     xc contribution           =     -49.08932225 Ry
     ewald contribution        =    -108.47518689 Ry

     convergence has been achieved in  14 iterations

     Forces acting on atoms (cartesian axes, Ry/au):

     atom    1 type  2   force =     0.00000000    0.00000000   -0.00000279
     atom    2 type  2   force =     0.00000000    0.00000000    0.00000279
     atom    3 type  1   force =    -0.00000186    0.00000070   -0.00000258
     atom    4 type  1   force =     0.00000186   -0.00000070   -0.00000258
     atom    5 type  1   force =    -0.00000186   -0.00000070    0.00000258
     atom    6 type  1   force =     0.00000186    0.00000070    0.00000258
     atom    7 type  3   force =     0.00000292    0.00000020    0.00000758
     atom    8 type  3   force =    -0.00000292   -0.00000020    0.00000758
     atom    9 type  3   force =     0.00000292   -0.00000020   -0.00000758
     atom   10 type  3   force =    -0.00000292    0.00000020   -0.00000758
     atom   11 type  3   force =    -0.00000221   -0.00000334   -0.00000017
     atom   12 type  3   force =     0.00000221    0.00000334   -0.00000017
     atom   13 type  3   force =    -0.00000221    0.00000334    0.00000017
     atom   14 type  3   force =     0.00000221   -0.00000334    0.00000017
     atom   15 type  3   force =     0.00000297   -0.00000064    0.00000077
     atom   16 type  3   force =    -0.00000297    0.00000064    0.00000077
     atom   17 type  3   force =     0.00000297    0.00000064   -0.00000077
     atom   18 type  3   force =    -0.00000297   -0.00000064   -0.00000077
     atom   19 type  3   force =     0.00000064   -0.00000296   -0.00000427
     atom   20 type  3   force =    -0.00000064    0.00000296   -0.00000427
     atom   21 type  3   force =     0.00000064    0.00000296    0.00000427
     atom   22 type  3   force =    -0.00000064   -0.00000296    0.00000427

     Total force =     0.000023     Total SCF correction =     0.000000

     Computing stress (Cartesian axis) and pressure

          total   stress  (Ry/bohr**3)                   (kbar)     P=       -5.27
  -0.00003577   0.00000000   0.00000000           -5.26        0.00        0.00
   0.00000000  -0.00003580   0.00000000            0.00       -5.27        0.00
   0.00000000   0.00000000  -0.00003580            0.00        0.00       -5.27

     Writing all to output data dir ./pwscf.save/ :
     XML data file, charge density, pseudopotentials, collected wavefunctions

     General routines

     Parallel routines

   This run was terminated on:  16:14:15  12Jul2024

   JOB DONE.