     Program PWSCF v.7.3.1 starts on 12Aug2024 at 11:12:53

     Waiting for input...
     Reading input from standard input

     Current dimensions of program PWSCF are:
     Max number of different atomic species (ntypx) = 10
     Max number of k-points (npk) =  40000
     Max angular momentum in pseudopotentials (lmaxx) =  4

     R & G space division:  proc/nbgrp/npool/nimage =      24
     Subspace diagonalization in iterative solution of the eigenvalue problem:
     a serial algorithm will be used

     Using Slab Decomposition

     Title:
     pre-ph

     bravais-lattice index     =            8
     lattice parameter (alat)  =      13.3294  a.u.
     unit-cell volume          =    1548.2628 (a.u.)^3
     number of atoms/cell      =           22
     number of atomic types    =            3
     number of electrons       =        48.00
     number of Kohn-Sham states=           24
     kinetic-energy cutoff     =     100.0000  Ry
     charge density cutoff     =     800.0000  Ry
     scf convergence threshold =      1.0E-10
     mixing beta               =       0.7000
     number of iterations used =            8  plain     mixing
     Exchange-correlation= PBESOL
                           (   1   4  10   8   0   0   0)

     celldm(1)=  13.329372  celldm(2)=   0.998555  celldm(3)=   0.654702
     celldm(4)=   0.000000  celldm(5)=   0.000000  celldm(6)=   0.000000

     crystal axes: (cart. coord. in units of alat)
               a(1) = (   1.000000   0.000000   0.000000 )
               a(2) = (   0.000000   0.998555   0.000000 )
               a(3) = (   0.000000   0.000000   0.654702 )

     reciprocal axes: (cart. coord. in units 2 pi/alat)
               b(1) = (  1.000000  0.000000  0.000000 )
               b(2) = (  0.000000  1.001447  0.000000 )
               b(3) = (  0.000000  0.000000  1.527413 )

     PseudoPot. # 1 for B  read from file:
     /home/mehlhorn/pseudos/b_pbesol_v1.4.uspp.F.UPF
     MD5 check sum: 369b69bef2c3aeed4453bd8b804fd6a8
     Pseudo is Ultrasoft + core correction, Zval =  3.0
     Generated by new atomic code, or converted to UPF format
     Using radial grid of  781 points,  4 beta functions with:
                l(1) =   0
                l(2) =   0
                l(3) =   1
                l(4) =   1
     Q(r) pseudized with  8 coefficients,  rinner =    1.100   1.100   1.100

     PseudoPot. # 2 for Ba read from file:
     /home/mehlhorn/pseudos/Ba.nc.z_10.oncvpsp4.dojo.v4-sp.upf
     MD5 check sum: c10ed334bb677c0554edec7181ce9143
     Pseudo is Norm-conserving + core correction, Zval = 10.0
     Generated using ONCVPSP code by D. R. Hamann
     Using radial grid of 1938 points,  8 beta functions with:
                l(1) =   0
                l(2) =   0
                l(3) =   1
                l(4) =   1
                l(5) =   2
                l(6) =   2
                l(7) =   3
                l(8) =   3

     PseudoPot. # 3 for H  read from file:
     /home/mehlhorn/pseudos/H_ONCV_PBEsol-1.0.upf
     MD5 check sum: 398ef8f67c0a7342c05c87c5e19ea467
     Pseudo is Norm-conserving, Zval =  1.0
     Generated using ONCVPSP code by D. R. Hamann
     Using radial grid of 1180 points,  2 beta functions with:
                l(1) =   0
                l(2) =   0

     atomic species   valence    mass     pseudopotential
     B                 3.00    10.81100     B ( 1.00)
     Ba               10.00   137.32700     Ba( 1.00)
     H                 1.00     1.00794     H ( 1.00)

      4 Sym. Ops. (no inversion) found ( 2 have fractional translation)

   Cartesian axes

     site n.     atom                  positions (alat units)
         1        Ba     tau(   1) = (   0.5000000   0.4992775   0.3273502  )
         2        Ba     tau(   2) = (   0.0000000   0.0000000   0.6547028  )
         3        B      tau(   3) = (   0.6273964   0.2536205   0.0000055  )
         4        B      tau(   4) = (   0.3726036   0.7449345   0.0000055  )
         5        B      tau(   5) = (   0.1273964   0.2456570   0.3273455  )
         6        B      tau(   6) = (   0.8726036   0.7528980   0.3273455  )
         7        H      tau(   7) = (   0.4554096   0.2850000  -0.0000080  )
         8        H      tau(   8) = (   0.5445904   0.7135550  -0.0000080  )
         9        H      tau(   9) = (   0.9554096   0.2142775   0.3273589  )
        10        H      tau(  10) = (   0.0445904   0.7842775   0.3273589  )
        11        H      tau(  11) = (   0.7157590   0.4052331   0.0000060  )
        12        H      tau(  12) = (   0.2842410   0.5933219   0.0000060  )
        13        H      tau(  13) = (   0.2157590   0.0940444   0.3273450  )
        14        H      tau(  14) = (   0.7842410   0.9045106   0.3273450  )
        15        H      tau(  15) = (   0.6658169   0.1636329   0.5103326  )
        16        H      tau(  16) = (   0.3341831   0.8349221   0.5103326  )
        17        H      tau(  17) = (   0.1658169   0.3356446   0.4717203  )
        18        H      tau(  18) = (   0.8341831   0.6629104   0.4717203  )
        19        H      tau(  19) = (   0.3341889   0.8349214   0.1443837  )
        20        H      tau(  20) = (   0.6658111   0.1636336   0.1443837  )
        21        H      tau(  21) = (   0.8341889   0.6629111   0.1829672  )
        22        H      tau(  22) = (   0.1658111   0.3356439   0.1829672  )

     number of k points=    27
                       cart. coord. in units 2pi/alat
        k(    1) = (   0.0000000   0.0000000   0.0000000), wk =   0.0160000
        k(    2) = (   0.0000000   0.0000000   0.3054825), wk =   0.0320000
        k(    3) = (   0.0000000   0.0000000   0.6109650), wk =   0.0320000
        k(    4) = (   0.0000000   0.2002894   0.0000000), wk =   0.0320000
        k(    5) = (   0.0000000   0.2002894   0.3054825), wk =   0.0640000
        k(    6) = (   0.0000000   0.2002894   0.6109650), wk =   0.0640000
        k(    7) = (   0.0000000   0.4005788   0.0000000), wk =   0.0320000
        k(    8) = (   0.0000000   0.4005788   0.3054825), wk =   0.0640000
        k(    9) = (   0.0000000   0.4005788   0.6109650), wk =   0.0640000
        k(   10) = (   0.2000000   0.0000000   0.0000000), wk =   0.0320000
        k(   11) = (   0.2000000   0.0000000   0.3054825), wk =   0.0640000
        k(   12) = (   0.2000000   0.0000000   0.6109650), wk =   0.0640000
        k(   13) = (   0.2000000   0.2002894   0.0000000), wk =   0.0640000
        k(   14) = (   0.2000000   0.2002894   0.3054825), wk =   0.1280000
        k(   15) = (   0.2000000   0.2002894   0.6109650), wk =   0.1280000
        k(   16) = (   0.2000000   0.4005788   0.0000000), wk =   0.0640000
        k(   17) = (   0.2000000   0.4005788   0.3054825), wk =   0.1280000
        k(   18) = (   0.2000000   0.4005788   0.6109650), wk =   0.1280000
        k(   19) = (   0.4000000   0.0000000   0.0000000), wk =   0.0320000
        k(   20) = (   0.4000000   0.0000000   0.3054825), wk =   0.0640000
        k(   21) = (   0.4000000   0.0000000   0.6109650), wk =   0.0640000
        k(   22) = (   0.4000000   0.2002894   0.0000000), wk =   0.0640000
        k(   23) = (   0.4000000   0.2002894   0.3054825), wk =   0.1280000
        k(   24) = (   0.4000000   0.2002894   0.6109650), wk =   0.1280000
        k(   25) = (   0.4000000   0.4005788   0.0000000), wk =   0.0640000
        k(   26) = (   0.4000000   0.4005788   0.3054825), wk =   0.1280000
        k(   27) = (   0.4000000   0.4005788   0.6109650), wk =   0.1280000

     Initial potential from superposition of free atoms

     starting charge      47.9682, renormalised to      48.0000
     Starting wfcs are   42 randomized atomic wfcs

     Self-consistent Calculation

     iteration #  1     ecut=   100.00 Ry     beta= 0.70
     Davidson diagonalization with overlap
     ethr =  1.00E-02,  avg # of iterations =  2.0

     total energy              =    -155.91229993 Ry
     estimated scf accuracy    <       2.14900161 Ry

[...]

     total energy              =    -156.47092803 Ry
     estimated scf accuracy    <          2.0E-10 Ry

     iteration # 11     ecut=   100.00 Ry     beta= 0.70
     Davidson diagonalization with overlap
     ethr =  4.21E-13,  avg # of iterations =  7.3

     End of self-consistent calculation

          k = 0.0000 0.0000 0.0000 ( 26119 PWs)   bands (ev):

   -24.4974 -24.4914  -9.9883  -9.9375  -9.7519  -9.7185  -9.6644  -9.6159
    -6.3979  -5.5522  -4.9998  -4.9223  -2.1154  -1.1774  -1.1395  -0.8197
    -0.7239  -0.5719  -0.4932  -0.3592  -0.0997   0.1566   0.1938   0.2103

[...]

          k = 0.4000 0.4006 0.6110 ( 26172 PWs)   bands (ev):

   -24.4822 -24.4820 -10.1053 -10.0995  -9.8086  -9.7962  -9.7283  -9.7263
    -5.4818  -5.4185  -5.1496  -5.0815  -1.9037  -1.8631  -1.3169  -1.2853
    -0.4729  -0.4120  -0.2372  -0.2241  -0.1072  -0.1013   0.0587   0.0966

     highest occupied level (ev):     0.2103

!    total energy              =    -156.47092803 Ry
     estimated scf accuracy    <          7.7E-11 Ry

     The total energy is the sum of the following terms:
     one-electron contribution =     -31.44766639 Ry
     hartree contribution      =      29.10517500 Ry
     xc contribution           =     -49.06076870 Ry
     ewald contribution        =    -105.06766794 Ry

     convergence has been achieved in  11 iterations

     Writing all to output data dir ./pwscf.save/ :
     XML data file, charge density, pseudopotentials, collected wavefunctions

     General routines

     Parallel routines

   This run was terminated on:  11:17:16  12Aug2024

   JOB DONE.