     Program PWSCF v.7.3.1 starts on  6Aug2024 at 14:42:28

     Waiting for input...
     Reading input from standard input

     Current dimensions of program PWSCF are:
     Max number of different atomic species (ntypx) = 10
     Max number of k-points (npk) =  40000
     Max angular momentum in pseudopotentials (lmaxx) =  4

     R & G space division:  proc/nbgrp/npool/nimage =      24
     Subspace diagonalization in iterative solution of the eigenvalue problem:
     a serial algorithm will be used

     Using Slab Decomposition

     Title:
     volume variation

     bravais-lattice index     =            8
     lattice parameter (alat)  =      13.0068  a.u.
     unit-cell volume          =    1562.5325 (a.u.)^3
     number of atoms/cell      =           22
     number of atomic types    =            3
     number of electrons       =        48.00
     number of Kohn-Sham states=           24
     kinetic-energy cutoff     =     100.0000  Ry
     charge density cutoff     =     800.0000  Ry
     scf convergence threshold =      1.0E-10
     mixing beta               =       0.7000
     number of iterations used =            8  plain     mixing
     energy convergence thresh.=      1.0E-05
     force convergence thresh. =      1.0E-05
     press convergence thresh. =      5.0E-01
     Exchange-correlation= PBESOL
                           (   1   4  10   8   0   0   0)
     nstep                     =          300

     celldm(1)=  13.006786  celldm(2)=   1.025571  celldm(3)=   0.692394
     celldm(4)=   0.000000  celldm(5)=   0.000000  celldm(6)=   0.000000

     crystal axes: (cart. coord. in units of alat)
               a(1) = (   1.000000   0.000000   0.000000 )
               a(2) = (   0.000000   1.025571   0.000000 )
               a(3) = (   0.000000   0.000000   0.692394 )

     reciprocal axes: (cart. coord. in units 2 pi/alat)
               b(1) = (  1.000000  0.000000  0.000000 )
               b(2) = (  0.000000  0.975067  0.000000 )
               b(3) = (  0.000000  0.000000  1.444264 )

     PseudoPot. # 1 for B  read from file:
     /home/mehlhorn/pseudos/b_pbesol_v1.4.uspp.F.UPF
     MD5 check sum: 369b69bef2c3aeed4453bd8b804fd6a8
     Pseudo is Ultrasoft + core correction, Zval =  3.0
     Generated by new atomic code, or converted to UPF format
     Using radial grid of  781 points,  4 beta functions with:
                l(1) =   0
                l(2) =   0
                l(3) =   1
                l(4) =   1
     Q(r) pseudized with  8 coefficients,  rinner =    1.100   1.100   1.100

     PseudoPot. # 2 for Ba read from file:
     /home/mehlhorn/pseudos/Ba.nc.z_10.oncvpsp4.dojo.v4-sp.upf
     MD5 check sum: c10ed334bb677c0554edec7181ce9143
     Pseudo is Norm-conserving + core correction, Zval = 10.0
     Generated using ONCVPSP code by D. R. Hamann
     Using radial grid of 1938 points,  8 beta functions with:
                l(1) =   0
                l(2) =   0
                l(3) =   1
                l(4) =   1
                l(5) =   2
                l(6) =   2
                l(7) =   3
                l(8) =   3

     PseudoPot. # 3 for H  read from file:
     /home/mehlhorn/pseudos/H_ONCV_PBEsol-1.0.upf
     MD5 check sum: 398ef8f67c0a7342c05c87c5e19ea467
     Pseudo is Norm-conserving, Zval =  1.0
     Generated using ONCVPSP code by D. R. Hamann
     Using radial grid of 1180 points,  2 beta functions with:
                l(1) =   0
                l(2) =   0

     atomic species   valence    mass     pseudopotential
     B                 3.00    10.81100     B ( 1.00)
     Ba               10.00   137.32700     Ba( 1.00)
     H                 1.00     1.00794     H ( 1.00)

      4 Sym. Ops. (no inversion) found ( 2 have fractional translation)

   Cartesian axes

     site n.     atom                  positions (alat units)
         1        Ba     tau(   1) = (   0.5000000   0.5127855   0.3462657  )
         2        Ba     tau(   2) = (   0.0000000   0.0000000   0.6923255  )
         3        B      tau(   3) = (   0.6102570   0.2453190   0.0000455  )
         4        B      tau(   4) = (   0.3897430   0.7802519   0.0000455  )
         5        B      tau(   5) = (   0.1102570   0.2674665   0.3461516  )
         6        B      tau(   6) = (   0.8897430   0.7581045   0.3461516  )
         7        H      tau(   7) = (   0.4340973   0.2996264   0.0001599  )
         8        H      tau(   8) = (   0.5659027   0.7259445   0.0001599  )
         9        H      tau(   9) = (   0.9340973   0.2131590   0.3460372  )
        10        H      tau(  10) = (   0.0659027   0.8124119   0.3460372  )
        11        H      tau(  11) = (   0.7220603   0.3933629  -0.0000058  )
        12        H      tau(  12) = (   0.2779397   0.6322081  -0.0000058  )
        13        H      tau(  13) = (   0.2220603   0.1194226   0.3462029  )
        14        H      tau(  14) = (   0.7779397   0.9061483   0.3462029  )
        15        H      tau(  15) = (   0.6392499   0.1457279   0.5404125  )
        16        H      tau(  16) = (   0.3607501   0.8798430   0.5404125  )
        17        H      tau(  17) = (   0.1392499   0.3670576   0.4981787  )
        18        H      tau(  18) = (   0.8607501   0.6585133   0.4981787  )
        19        H      tau(  19) = (   0.3605328   0.8798946   0.1519977  )
        20        H      tau(  20) = (   0.6394672   0.1456763   0.1519977  )
        21        H      tau(  21) = (   0.8605328   0.6584617   0.1941994  )
        22        H      tau(  22) = (   0.1394672   0.3671092   0.1941994  )

     number of k points=    27
                       cart. coord. in units 2pi/alat
        k(    1) = (   0.0000000   0.0000000   0.0000000), wk =   0.0312500
        k(    2) = (   0.0000000   0.0000000   0.3610660), wk =   0.0625000
        k(    3) = (   0.0000000   0.0000000  -0.7221320), wk =   0.0312500
        k(    4) = (   0.0000000   0.2437667   0.0000000), wk =   0.0625000
        k(    5) = (   0.0000000   0.2437667   0.3610660), wk =   0.1250000
        k(    6) = (   0.0000000   0.2437667  -0.7221320), wk =   0.0625000
        k(    7) = (   0.0000000  -0.4875333   0.0000000), wk =   0.0312500
        k(    8) = (   0.0000000  -0.4875333   0.3610660), wk =   0.0625000
        k(    9) = (   0.0000000  -0.4875333  -0.7221320), wk =   0.0312500
        k(   10) = (   0.2500000   0.0000000   0.0000000), wk =   0.0625000
        k(   11) = (   0.2500000   0.0000000   0.3610660), wk =   0.1250000
        k(   12) = (   0.2500000   0.0000000  -0.7221320), wk =   0.0625000
        k(   13) = (   0.2500000   0.2437667   0.0000000), wk =   0.1250000
        k(   14) = (   0.2500000   0.2437667   0.3610660), wk =   0.2500000
        k(   15) = (   0.2500000   0.2437667  -0.7221320), wk =   0.1250000
        k(   16) = (   0.2500000  -0.4875333   0.0000000), wk =   0.0625000
        k(   17) = (   0.2500000  -0.4875333   0.3610660), wk =   0.1250000
        k(   18) = (   0.2500000  -0.4875333  -0.7221320), wk =   0.0625000
        k(   19) = (  -0.5000000   0.0000000   0.0000000), wk =   0.0312500
        k(   20) = (  -0.5000000   0.0000000   0.3610660), wk =   0.0625000
        k(   21) = (  -0.5000000   0.0000000  -0.7221320), wk =   0.0312500
        k(   22) = (  -0.5000000   0.2437667   0.0000000), wk =   0.0625000
        k(   23) = (  -0.5000000   0.2437667   0.3610660), wk =   0.1250000
        k(   24) = (  -0.5000000   0.2437667  -0.7221320), wk =   0.0625000
        k(   25) = (  -0.5000000  -0.4875333   0.0000000), wk =   0.0312500
        k(   26) = (  -0.5000000  -0.4875333   0.3610660), wk =   0.0625000
        k(   27) = (  -0.5000000  -0.4875333  -0.7221320), wk =   0.0312500

     Initial potential from superposition of free atoms

     starting charge      47.9682, renormalised to      48.0000
     Starting wfcs are   42 randomized atomic wfcs

     Self-consistent Calculation

     iteration #  1     ecut=   100.00 Ry     beta= 0.70
     Davidson diagonalization with overlap
     ethr =  1.00E-02,  avg # of iterations =  2.0

     total energy              =    -155.95652066 Ry
     estimated scf accuracy    <       1.89042650 Ry

[...]

     End of self-consistent calculation

          k = 0.0000 0.0000 0.0000 ( 26431 PWs)   bands (ev):

   -24.6684 -24.6628 -10.0616 -10.0038  -9.8698  -9.8449  -9.8097  -9.7659
    -6.2238  -5.3366  -4.8503  -4.6782  -1.9879  -1.1456  -1.1013  -0.7218
    -0.4007  -0.3888  -0.3851  -0.2196  -0.0819   0.2938   0.3270   0.3656

[...]

          k =-0.5000 0.0000 0.0000 ( 26394 PWs)   bands (ev):

[...]

     highest occupied level (ev):     0.3656

!    total energy              =    -156.45153649 Ry
     estimated scf accuracy    <          5.8E-11 Ry

     The total energy is the sum of the following terms:
     one-electron contribution =     -26.34934634 Ry
     hartree contribution      =      26.41406468 Ry
     xc contribution           =     -48.69239200 Ry
     ewald contribution        =    -107.82386283 Ry

     convergence has been achieved in  11 iterations

     Forces acting on atoms (cartesian axes, Ry/au):

     atom    1 type  2   force =     0.00000000    0.00000000    0.00000848
     atom    2 type  2   force =     0.00000000    0.00000000   -0.00000848
     atom    3 type  1   force =     0.00048941    0.00251383   -0.00001597
     atom    4 type  1   force =    -0.00048941   -0.00251383   -0.00001597
     atom    5 type  1   force =     0.00048941   -0.00251383    0.00001597
     atom    6 type  1   force =    -0.00048941    0.00251383    0.00001597
     atom    7 type  3   force =     0.02280264   -0.00581916   -0.00002330
     atom    8 type  3   force =    -0.02280264    0.00581916   -0.00002330
     atom    9 type  3   force =     0.02280264    0.00581916    0.00002330
     atom   10 type  3   force =    -0.02280264   -0.00581916    0.00002330
     atom   11 type  3   force =    -0.01505970   -0.01825899    0.00000942
     atom   12 type  3   force =     0.01505970    0.01825899    0.00000942
     atom   13 type  3   force =    -0.01505970    0.01825899   -0.00000942
     atom   14 type  3   force =     0.01505970   -0.01825899   -0.00000942
     atom   15 type  3   force =    -0.00283815    0.01341101    0.02036389
     atom   16 type  3   force =     0.00283815   -0.01341101    0.02036389
     atom   17 type  3   force =    -0.00283815   -0.01341101   -0.02036389
     atom   18 type  3   force =     0.00283815    0.01341101   -0.02036389
     atom   19 type  3   force =     0.00290243   -0.01343132   -0.02036671
     atom   20 type  3   force =    -0.00290243    0.01343132   -0.02036671
     atom   21 type  3   force =     0.00290243    0.01343132    0.02036671
     atom   22 type  3   force =    -0.00290243   -0.01343132    0.02036671

     Total force =     0.096474     Total SCF correction =     0.000004

     Computing stress (Cartesian axis) and pressure

          total   stress  (Ry/bohr**3)                   (kbar)     P=      -47.42
  -0.00030054   0.00000000   0.00000000          -44.21        0.00        0.00
   0.00000000  -0.00030630   0.00000000            0.00      -45.06        0.00
[...]
     1.03170498     0.00000000     0.00000000
     0.00000000     1.02720890     0.00000000
     0.00000000     0.00000000     0.67004627
New lattice vectors in INITIAL alat:
     1.03170498     0.00000000     0.00000000
     0.00000000     1.02720890     0.00000000
     0.00000000     0.00000000     0.67004627
New lattice vectors in NEW alat (for information only):
     1.00000000     0.00000000     0.00000000
     0.00000000     0.99564209     0.00000000
     0.00000000     0.00000000     0.64945531
Discrepancy in bohr =     0.000000    0.000000    0.000000
     new conv_thr            =            1.0E-12 Ry

     new unit-cell volume =   1562.53247 a.u.^3 (   231.54342 Ang^3 )
     density =      2.39550 g/cm^3

[...]

ATOMIC_POSITIONS (crystal)
Ba               0.5000000000        0.5000000000        0.5000002764
Ba               0.0000000000        0.0000000000        0.9999997236
B                0.6304291863        0.2568824539        0.0000108598
B                0.3695708137        0.7431175461        0.0000108598
B                0.1304291863        0.2431175461        0.4999891402
B                0.8695708137        0.7568824539        0.4999891402
H                0.4589234318        0.2843854105       -0.0000096295
H                0.5410765682        0.7156145895       -0.0000096295
H                0.9589234318        0.2156145895        0.5000096295
H                0.0410765682        0.7843854105        0.5000096295
H                0.7148392306        0.4100228476        0.0000126176
H                0.2851607694        0.5899771524        0.0000126176
H                0.2148392306        0.0899771524        0.4999873824
H                0.7851607694        0.9100228476        0.4999873824
H                0.6705874956        0.1681237317        0.7790704744
H                0.3294125044        0.8318762683        0.7790704744
H                0.1705874956        0.3318762683        0.7209295256
H                0.8294125044        0.6681237317        0.7209295256
H                0.3294167455        0.8318749764        0.2209563191
H                0.6705832545        0.1681250236        0.2209563191
H                0.8294167455        0.6681250236        0.2790436809
H                0.1705832545        0.3318749764        0.2790436809

     Writing config-only to output data dir ./pwscf.save/ :
     XML data file
     NEW-OLD atomic charge density approx. for the potential

[...]

     Threshold (ethr) on eigenvalues was too large:
     Diagonalizing with lowered threshold

     Davidson diagonalization with overlap
     ethr =  8.12E-11,  avg # of iterations =  4.0

[...]

     Volume is kept fixed: isostatic pressure set to zero
     Energy error            =      7.6E-09 Ry
     Gradient error          =      8.2E-06 Ry/Bohr
     Cell gradient error     =      5.3E-03 kbar
ibrav =      8
 celldm(1) =     13.41916552
 celldm(2) =      0.99564209
 celldm(3) =      0.64945531
Input lattice vectors:
     1.03170498     0.00000000     0.00000000
     0.00000000     1.02720890     0.00000000
     0.00000000     0.00000000     0.67004627
New lattice vectors in INITIAL alat:
     1.03170498     0.00000000     0.00000000
     0.00000000     1.02720890     0.00000000
     0.00000000     0.00000000     0.67004627
New lattice vectors in NEW alat (for information only):
     1.00000000     0.00000000     0.00000000
     0.00000000     0.99564209     0.00000000
     0.00000000     0.00000000     0.64945531
Discrepancy in bohr =     0.000000    0.000000    0.000000

     bfgs converged in  62 scf cycles and  61 bfgs steps
     (criteria: energy <  1.0E-05 Ry, force <  1.0E-05 Ry/Bohr, cell <  5.0E-01 kbar)

     End of BFGS Geometry Optimization

     Final enthalpy           =    -156.4702207088 Ry

     File ./pwscf.bfgs deleted, as requested
Begin final coordinates
     new unit-cell volume =   1562.53247 a.u.^3 (   231.54342 Ang^3 )
     density =      2.39550 g/cm^3

CELL_PARAMETERS (alat= 13.00678570)
   1.031704975   0.000000000   0.000000000
   0.000000000   1.027208902   0.000000000
   0.000000000   0.000000000   0.670046273

ATOMIC_POSITIONS (crystal)
Ba               0.5000000000        0.5000000000        0.5000002764
Ba               0.0000000000        0.0000000000        0.9999997236
B                0.6304291863        0.2568824539        0.0000108598
B                0.3695708137        0.7431175461        0.0000108598
B                0.1304291863        0.2431175461        0.4999891402
B                0.8695708137        0.7568824539        0.4999891402
H                0.4589234318        0.2843854105       -0.0000096295
H                0.5410765682        0.7156145895       -0.0000096295
H                0.9589234318        0.2156145895        0.5000096295
H                0.0410765682        0.7843854105        0.5000096295
H                0.7148392306        0.4100228476        0.0000126176
H                0.2851607694        0.5899771524        0.0000126176
H                0.2148392306        0.0899771524        0.4999873824
H                0.7851607694        0.9100228476        0.4999873824
H                0.6705874956        0.1681237317        0.7790704744
H                0.3294125044        0.8318762683        0.7790704744
H                0.1705874956        0.3318762683        0.7209295256
H                0.8294125044        0.6681237317        0.7209295256
H                0.3294167455        0.8318749764        0.2209563191
H                0.6705832545        0.1681250236        0.2209563191
H                0.8294167455        0.6681250236        0.2790436809
H                0.1705832545        0.3318749764        0.2790436809
End final coordinates

     Writing config-only to output data dir ./pwscf.save/ :
     XML data file

     Final scf calculation at the relaxed structure.
     The G-vectors are recalculated for the final unit cell
     Results may differ from those at the preceding step.

     Using Slab Decomposition

     Title:
     volume variation

     bravais-lattice index     =            8
     lattice parameter (alat)  =      13.0068  a.u.
     unit-cell volume          =    1562.5325 (a.u.)^3
     number of atoms/cell      =           22
     number of atomic types    =            3
     number of electrons       =        48.00
     number of Kohn-Sham states=           24
     kinetic-energy cutoff     =     100.0000  Ry
     charge density cutoff     =     800.0000  Ry
     scf convergence threshold =      1.0E-12
     mixing beta               =       0.7000
     number of iterations used =            8  plain     mixing
     press convergence thresh. =      5.0E-01
     Exchange-correlation= PBESOL
                           (   1   4  10   8   0   0   0)

     celldm(1)=  13.006786  celldm(2)=   1.025571  celldm(3)=   0.692394
     celldm(4)=   0.000000  celldm(5)=   0.000000  celldm(6)=   0.000000

     crystal axes: (cart. coord. in units of alat)
               a(1) = (   1.031705   0.000000   0.000000 )
               a(2) = (   0.000000   1.027209   0.000000 )
               a(3) = (   0.000000   0.000000   0.670046 )

     reciprocal axes: (cart. coord. in units 2 pi/alat)
               b(1) = (  0.969269  0.000000  0.000000 )
               b(2) = (  0.000000  0.973512  0.000000 )
               b(3) = (  0.000000  0.000000  1.492434 )

     PseudoPot. # 1 for B  read from file:
     /home/mehlhorn/pseudos/b_pbesol_v1.4.uspp.F.UPF
     MD5 check sum: 369b69bef2c3aeed4453bd8b804fd6a8
     Pseudo is Ultrasoft + core correction, Zval =  3.0
     Generated by new atomic code, or converted to UPF format
     Using radial grid of  781 points,  4 beta functions with:
                l(1) =   0
                l(2) =   0
                l(3) =   1
                l(4) =   1
     Q(r) pseudized with  8 coefficients,  rinner =    1.100   1.100   1.100

     PseudoPot. # 2 for Ba read from file:
     /home/mehlhorn/pseudos/Ba.nc.z_10.oncvpsp4.dojo.v4-sp.upf
     MD5 check sum: c10ed334bb677c0554edec7181ce9143
     Pseudo is Norm-conserving + core correction, Zval = 10.0
     Generated using ONCVPSP code by D. R. Hamann
     Using radial grid of 1938 points,  8 beta functions with:
                l(1) =   0
                l(2) =   0
                l(3) =   1
                l(4) =   1
                l(5) =   2
                l(6) =   2
                l(7) =   3
                l(8) =   3

     PseudoPot. # 3 for H  read from file:
     /home/mehlhorn/pseudos/H_ONCV_PBEsol-1.0.upf
     MD5 check sum: 398ef8f67c0a7342c05c87c5e19ea467
     Pseudo is Norm-conserving, Zval =  1.0
     Generated using ONCVPSP code by D. R. Hamann
     Using radial grid of 1180 points,  2 beta functions with:
                l(1) =   0
                l(2) =   0

     atomic species   valence    mass     pseudopotential
     B                 3.00    10.81100     B ( 1.00)
     Ba               10.00   137.32700     Ba( 1.00)
     H                 1.00     1.00794     H ( 1.00)

      4 Sym. Ops. (no inversion) found ( 2 have fractional translation)

   Cartesian axes

     site n.     atom                  positions (alat units)
         1        Ba     tau(   1) = (   0.5158525   0.5136045   0.3350233  )
         2        Ba     tau(   2) = (   0.0000000   0.0000000   0.6700461  )
         3        B      tau(   3) = (   0.6504169   0.2638719   0.0000073  )
         4        B      tau(   4) = (   0.3812880   0.7633370   0.0000073  )
         5        B      tau(   5) = (   0.1345644   0.2497325   0.3350159  )
         6        B      tau(   6) = (   0.8971405   0.7774764   0.3350159  )
         7        H      tau(   7) = (   0.4734736   0.2921232  -0.0000065  )
         8        H      tau(   8) = (   0.5582314   0.7350857  -0.0000065  )
         9        H      tau(   9) = (   0.9893261   0.2214812   0.3350296  )
        10        H      tau(  10) = (   0.0423789   0.8057277   0.3350296  )
        11        H      tau(  11) = (   0.7375032   0.4211791   0.0000085  )
        12        H      tau(  12) = (   0.2942018   0.6060298   0.0000085  )
        13        H      tau(  13) = (   0.2216507   0.0924253   0.3350147  )
        14        H      tau(  14) = (   0.8100543   0.9347836   0.3350147  )
        15        H      tau(  15) = (   0.6918485   0.1726982   0.5220133  )
        16        H      tau(  16) = (   0.3398565   0.8545107   0.5220133  )
        17        H      tau(  17) = (   0.1759960   0.3409063   0.4830561  )
        18        H      tau(  18) = (   0.8557090   0.6863026   0.4830561  )
        19        H      tau(  19) = (   0.3398609   0.8545094   0.1480510  )
        20        H      tau(  20) = (   0.6918441   0.1726995   0.1480510  )
        21        H      tau(  21) = (   0.8557134   0.6863040   0.1869722  )
        22        H      tau(  22) = (   0.1759916   0.3409049   0.1869722  )

     number of k points=    27
                       cart. coord. in units 2pi/alat
        k(    1) = (   0.0000000   0.0000000   0.0000000), wk =   0.0312500
        k(    2) = (   0.0000000   0.0000000   0.3731086), wk =   0.0625000
        k(    3) = (   0.0000000   0.0000000  -0.7462171), wk =   0.0312500
        k(    4) = (   0.0000000   0.2433780   0.0000000), wk =   0.0625000
        k(    5) = (   0.0000000   0.2433780   0.3731086), wk =   0.1250000
        k(    6) = (   0.0000000   0.2433780  -0.7462171), wk =   0.0625000
        k(    7) = (   0.0000000  -0.4867559   0.0000000), wk =   0.0312500
        k(    8) = (   0.0000000  -0.4867559   0.3731086), wk =   0.0625000
        k(    9) = (   0.0000000  -0.4867559  -0.7462171), wk =   0.0312500
        k(   10) = (   0.2423173   0.0000000   0.0000000), wk =   0.0625000
        k(   11) = (   0.2423173   0.0000000   0.3731086), wk =   0.1250000
        k(   12) = (   0.2423173   0.0000000  -0.7462171), wk =   0.0625000
        k(   13) = (   0.2423173   0.2433780   0.0000000), wk =   0.1250000
        k(   14) = (   0.2423173   0.2433780   0.3731086), wk =   0.2500000
        k(   15) = (   0.2423173   0.2433780  -0.7462171), wk =   0.1250000
        k(   16) = (   0.2423173  -0.4867559   0.0000000), wk =   0.0625000
        k(   17) = (   0.2423173  -0.4867559   0.3731086), wk =   0.1250000
        k(   18) = (   0.2423173  -0.4867559  -0.7462171), wk =   0.0625000
        k(   19) = (  -0.4846347   0.0000000   0.0000000), wk =   0.0312500
        k(   20) = (  -0.4846347   0.0000000   0.3731086), wk =   0.0625000
        k(   21) = (  -0.4846347   0.0000000  -0.7462171), wk =   0.0312500
        k(   22) = (  -0.4846347   0.2433780   0.0000000), wk =   0.0625000
        k(   23) = (  -0.4846347   0.2433780   0.3731086), wk =   0.1250000
        k(   24) = (  -0.4846347   0.2433780  -0.7462171), wk =   0.0625000
        k(   25) = (  -0.4846347  -0.4867559   0.0000000), wk =   0.0312500
        k(   26) = (  -0.4846347  -0.4867559   0.3731086), wk =   0.0625000
        k(   27) = (  -0.4846347  -0.4867559  -0.7462171), wk =   0.0312500

     Initial potential from superposition of free atoms

     starting charge      47.9682, renormalised to      48.0000
     Starting wfcs are   42 randomized atomic wfcs

     Self-consistent Calculation

[...]

     total energy              =    -156.47022218 Ry
     estimated scf accuracy    <          2.5E-12 Ry

     iteration # 13     ecut=   100.00 Ry     beta= 0.70
     Davidson diagonalization with overlap
     ethr =  1.00E-13,  avg # of iterations =  1.7

     End of self-consistent calculation

[...]

          k = 0.2423-0.4868-0.7462 ( 26408 PWs)   bands (ev):

[...]

          k =-0.4846-0.4868-0.7462 ( 26464 PWs)   bands (ev):

   -24.5500 -24.5500 -10.2118 -10.2118  -9.8334  -9.8334  -9.8188  -9.8188
    -5.5232  -5.5232  -5.1297  -5.1297  -1.9709  -1.9709  -1.5068  -1.5068
    -0.4306  -0.4306  -0.2426  -0.2426  -0.1912  -0.1912   0.0210   0.0210

     highest occupied level (ev):     0.1379

!    total energy              =    -156.47022218 Ry
     estimated scf accuracy    <          1.9E-13 Ry

     The total energy is the sum of the following terms:
     one-electron contribution =     -32.88562361 Ry
     hartree contribution      =      29.70251817 Ry
     xc contribution           =     -49.05968699 Ry
     ewald contribution        =    -104.22742974 Ry

     convergence has been achieved in  13 iterations

     Forces acting on atoms (cartesian axes, Ry/au):

     atom    1 type  2   force =     0.00000000    0.00000000    0.00000199
     atom    2 type  2   force =     0.00000000    0.00000000   -0.00000199
     atom    3 type  1   force =     0.00000026    0.00000443   -0.00000429
     atom    4 type  1   force =    -0.00000026   -0.00000443   -0.00000429
     atom    5 type  1   force =     0.00000026   -0.00000443    0.00000429
     atom    6 type  1   force =    -0.00000026    0.00000443    0.00000429
     atom    7 type  3   force =    -0.00000271   -0.00000092    0.00000823
     atom    8 type  3   force =     0.00000271    0.00000092    0.00000823
     atom    9 type  3   force =    -0.00000271    0.00000092   -0.00000823
     atom   10 type  3   force =     0.00000271   -0.00000092   -0.00000823
     atom   11 type  3   force =     0.00000176    0.00000432   -0.00000162
     atom   12 type  3   force =    -0.00000176   -0.00000432   -0.00000162
     atom   13 type  3   force =     0.00000176   -0.00000432    0.00000162
     atom   14 type  3   force =    -0.00000176    0.00000432    0.00000162
     atom   15 type  3   force =     0.00000400   -0.00000565   -0.00000602
     atom   16 type  3   force =    -0.00000400    0.00000565   -0.00000602
     atom   17 type  3   force =     0.00000400    0.00000565    0.00000602
     atom   18 type  3   force =    -0.00000400   -0.00000565    0.00000602
     atom   19 type  3   force =     0.00000531    0.00000197    0.00000052
     atom   20 type  3   force =    -0.00000531   -0.00000197    0.00000052
     atom   21 type  3   force =     0.00000531   -0.00000197   -0.00000052
     atom   22 type  3   force =    -0.00000531    0.00000197   -0.00000052

     Total force =     0.000032     Total SCF correction =     0.000000

     Computing stress (Cartesian axis) and pressure

          total   stress  (Ry/bohr**3)                   (kbar)     P=       -7.02
  -0.00004768   0.00000000   0.00000000           -7.01        0.00        0.00
   0.00000000  -0.00004769   0.00000000            0.00       -7.02        0.00
   0.00000000   0.00000000  -0.00004778            0.00        0.00       -7.03

     Writing all to output data dir ./pwscf.save/ :
     XML data file, charge density, pseudopotentials, collected wavefunctions

     General routines

     Parallel routines

   This run was terminated on:  18: 2:28   6Aug2024

   JOB DONE.