     Program PWSCF v.7.3.1 starts on  6Aug2024 at 14:42:27

     Waiting for input...
     Reading input from standard input

     Current dimensions of program PWSCF are:
     Max number of different atomic species (ntypx) = 10
     Max number of k-points (npk) =  40000
     Max angular momentum in pseudopotentials (lmaxx) =  4

     R & G space division:  proc/nbgrp/npool/nimage =      24
     Subspace diagonalization in iterative solution of the eigenvalue problem:
     a serial algorithm will be used

     Using Slab Decomposition

     Title:
     volume variation

     bravais-lattice index     =            8
     lattice parameter (alat)  =      13.0463  a.u.
     unit-cell volume          =    1576.8022 (a.u.)^3
     number of atoms/cell      =           22
     number of atomic types    =            3
     number of electrons       =        48.00
     number of Kohn-Sham states=           24
     kinetic-energy cutoff     =     100.0000  Ry
     charge density cutoff     =     800.0000  Ry
     scf convergence threshold =      1.0E-10
     mixing beta               =       0.7000
     number of iterations used =            8  plain     mixing
     energy convergence thresh.=      1.0E-05
     force convergence thresh. =      1.0E-05
     press convergence thresh. =      5.0E-01
     Exchange-correlation= PBESOL
                           (   1   4  10   8   0   0   0)
     nstep                     =          300

     celldm(1)=  13.046260  celldm(2)=   1.025571  celldm(3)=   0.692394
     celldm(4)=   0.000000  celldm(5)=   0.000000  celldm(6)=   0.000000

     crystal axes: (cart. coord. in units of alat)
               a(1) = (   1.000000   0.000000   0.000000 )
               a(2) = (   0.000000   1.025571   0.000000 )
               a(3) = (   0.000000   0.000000   0.692394 )

     reciprocal axes: (cart. coord. in units 2 pi/alat)
               b(1) = (  1.000000  0.000000  0.000000 )
               b(2) = (  0.000000  0.975067  0.000000 )
               b(3) = (  0.000000  0.000000  1.444264 )

     PseudoPot. # 1 for B  read from file:
     /home/mehlhorn/pseudos/b_pbesol_v1.4.uspp.F.UPF
     MD5 check sum: 369b69bef2c3aeed4453bd8b804fd6a8
     Pseudo is Ultrasoft + core correction, Zval =  3.0
     Generated by new atomic code, or converted to UPF format
     Using radial grid of  781 points,  4 beta functions with:
                l(1) =   0
                l(2) =   0
                l(3) =   1
                l(4) =   1
     Q(r) pseudized with  8 coefficients,  rinner =    1.100   1.100   1.100

     PseudoPot. # 2 for Ba read from file:
     /home/mehlhorn/pseudos/Ba.nc.z_10.oncvpsp4.dojo.v4-sp.upf
     MD5 check sum: c10ed334bb677c0554edec7181ce9143
     Pseudo is Norm-conserving + core correction, Zval = 10.0
     Generated using ONCVPSP code by D. R. Hamann
     Using radial grid of 1938 points,  8 beta functions with:
                l(1) =   0
                l(2) =   0
                l(3) =   1
                l(4) =   1
                l(5) =   2
                l(6) =   2
                l(7) =   3
                l(8) =   3

     PseudoPot. # 3 for H  read from file:
     /home/mehlhorn/pseudos/H_ONCV_PBEsol-1.0.upf
     MD5 check sum: 398ef8f67c0a7342c05c87c5e19ea467
     Pseudo is Norm-conserving, Zval =  1.0
     Generated using ONCVPSP code by D. R. Hamann
     Using radial grid of 1180 points,  2 beta functions with:
                l(1) =   0
                l(2) =   0

     atomic species   valence    mass     pseudopotential
     B                 3.00    10.81100     B ( 1.00)
     Ba               10.00   137.32700     Ba( 1.00)
     H                 1.00     1.00794     H ( 1.00)

      4 Sym. Ops. (no inversion) found ( 2 have fractional translation)

   Cartesian axes

     site n.     atom                  positions (alat units)
         1        Ba     tau(   1) = (   0.5000000   0.5127855   0.3462657  )
         2        Ba     tau(   2) = (   0.0000000   0.0000000   0.6923255  )
         3        B      tau(   3) = (   0.6102570   0.2453190   0.0000455  )
         4        B      tau(   4) = (   0.3897430   0.7802519   0.0000455  )
         5        B      tau(   5) = (   0.1102570   0.2674665   0.3461516  )
         6        B      tau(   6) = (   0.8897430   0.7581045   0.3461516  )
         7        H      tau(   7) = (   0.4340973   0.2996264   0.0001599  )
         8        H      tau(   8) = (   0.5659027   0.7259445   0.0001599  )
         9        H      tau(   9) = (   0.9340973   0.2131590   0.3460372  )
        10        H      tau(  10) = (   0.0659027   0.8124119   0.3460372  )
        11        H      tau(  11) = (   0.7220603   0.3933629  -0.0000058  )
        12        H      tau(  12) = (   0.2779397   0.6322081  -0.0000058  )
        13        H      tau(  13) = (   0.2220603   0.1194226   0.3462029  )
        14        H      tau(  14) = (   0.7779397   0.9061483   0.3462029  )
        15        H      tau(  15) = (   0.6392499   0.1457279   0.5404125  )
        16        H      tau(  16) = (   0.3607501   0.8798430   0.5404125  )
        17        H      tau(  17) = (   0.1392499   0.3670576   0.4981787  )
        18        H      tau(  18) = (   0.8607501   0.6585133   0.4981787  )
        19        H      tau(  19) = (   0.3605328   0.8798946   0.1519977  )
        20        H      tau(  20) = (   0.6394672   0.1456763   0.1519977  )
        21        H      tau(  21) = (   0.8605328   0.6584617   0.1941994  )
        22        H      tau(  22) = (   0.1394672   0.3671092   0.1941994  )

     number of k points=    27
                       cart. coord. in units 2pi/alat
        k(    1) = (   0.0000000   0.0000000   0.0000000), wk =   0.0312500
        k(    2) = (   0.0000000   0.0000000   0.3610660), wk =   0.0625000
        k(    3) = (   0.0000000   0.0000000  -0.7221320), wk =   0.0312500
        k(    4) = (   0.0000000   0.2437667   0.0000000), wk =   0.0625000
        k(    5) = (   0.0000000   0.2437667   0.3610660), wk =   0.1250000
        k(    6) = (   0.0000000   0.2437667  -0.7221320), wk =   0.0625000
        k(    7) = (   0.0000000  -0.4875333   0.0000000), wk =   0.0312500
        k(    8) = (   0.0000000  -0.4875333   0.3610660), wk =   0.0625000
        k(    9) = (   0.0000000  -0.4875333  -0.7221320), wk =   0.0312500
        k(   10) = (   0.2500000   0.0000000   0.0000000), wk =   0.0625000
        k(   11) = (   0.2500000   0.0000000   0.3610660), wk =   0.1250000
        k(   12) = (   0.2500000   0.0000000  -0.7221320), wk =   0.0625000
        k(   13) = (   0.2500000   0.2437667   0.0000000), wk =   0.1250000
        k(   14) = (   0.2500000   0.2437667   0.3610660), wk =   0.2500000
        k(   15) = (   0.2500000   0.2437667  -0.7221320), wk =   0.1250000
        k(   16) = (   0.2500000  -0.4875333   0.0000000), wk =   0.0625000
        k(   17) = (   0.2500000  -0.4875333   0.3610660), wk =   0.1250000
        k(   18) = (   0.2500000  -0.4875333  -0.7221320), wk =   0.0625000
        k(   19) = (  -0.5000000   0.0000000   0.0000000), wk =   0.0312500
        k(   20) = (  -0.5000000   0.0000000   0.3610660), wk =   0.0625000
        k(   21) = (  -0.5000000   0.0000000  -0.7221320), wk =   0.0312500
        k(   22) = (  -0.5000000   0.2437667   0.0000000), wk =   0.0625000
        k(   23) = (  -0.5000000   0.2437667   0.3610660), wk =   0.1250000
        k(   24) = (  -0.5000000   0.2437667  -0.7221320), wk =   0.0625000
        k(   25) = (  -0.5000000  -0.4875333   0.0000000), wk =   0.0312500
        k(   26) = (  -0.5000000  -0.4875333   0.3610660), wk =   0.0625000
        k(   27) = (  -0.5000000  -0.4875333  -0.7221320), wk =   0.0312500

     Initial potential from superposition of free atoms

     starting charge      47.9682, renormalised to      48.0000
     Starting wfcs are   42 randomized atomic wfcs

     Self-consistent Calculation

     iteration #  1     ecut=   100.00 Ry     beta= 0.70
     Davidson diagonalization with overlap
     ethr =  1.00E-02,  avg # of iterations =  2.0

     total energy              =    -155.95654032 Ry
     estimated scf accuracy    <       1.87205439 Ry

[...]

     End of self-consistent calculation

          k = 0.0000 0.0000 0.0000 ( 26643 PWs)   bands (ev):

   -24.7556 -24.7504 -10.1339 -10.0791  -9.9508  -9.9272  -9.8915  -9.8496
    -6.2454  -5.3666  -4.8991  -4.7253  -2.0166  -1.1885  -1.1336  -0.7585
    -0.4453  -0.4365  -0.4265  -0.2633  -0.1284   0.2433   0.2780   0.3162

[...]

          k =-0.5000 0.0000 0.0000 ( 26634 PWs)   bands (ev):

[...]

     highest occupied level (ev):     0.3162

!    total energy              =    -156.44674776 Ry
     estimated scf accuracy    <          3.8E-11 Ry

     The total energy is the sum of the following terms:
     one-electron contribution =     -26.82993750 Ry
     hartree contribution      =      26.52924197 Ry
     xc contribution           =     -48.64843610 Ry
     ewald contribution        =    -107.49761612 Ry

     convergence has been achieved in  11 iterations

     Forces acting on atoms (cartesian axes, Ry/au):

     atom    1 type  2   force =     0.00000000    0.00000000    0.00000806
     atom    2 type  2   force =     0.00000000    0.00000000   -0.00000806
     atom    3 type  1   force =     0.00052799    0.00272579   -0.00001630
     atom    4 type  1   force =    -0.00052799   -0.00272579   -0.00001630
     atom    5 type  1   force =     0.00052799   -0.00272579    0.00001630
     atom    6 type  1   force =    -0.00052799    0.00272579    0.00001630
     atom    7 type  3   force =     0.02490756   -0.00636165   -0.00002396
     atom    8 type  3   force =    -0.02490756    0.00636165   -0.00002396
     atom    9 type  3   force =     0.02490756    0.00636165    0.00002396
     atom   10 type  3   force =    -0.02490756   -0.00636165    0.00002396
     atom   11 type  3   force =    -0.01644808   -0.01995099    0.00000977
     atom   12 type  3   force =     0.01644808    0.01995099    0.00000977
     atom   13 type  3   force =    -0.01644808    0.01995099   -0.00000977
     atom   14 type  3   force =     0.01644808   -0.01995099   -0.00000977
     atom   15 type  3   force =    -0.00310755    0.01465114    0.02224612
     atom   16 type  3   force =     0.00310755   -0.01465114    0.02224612
     atom   17 type  3   force =    -0.00310755   -0.01465114   -0.02224612
     atom   18 type  3   force =     0.00310755    0.01465114   -0.02224612
     atom   19 type  3   force =     0.00317347   -0.01467153   -0.02224827
     atom   20 type  3   force =    -0.00317347    0.01467153   -0.02224827
     atom   21 type  3   force =     0.00317347    0.01467153    0.02224827
     atom   22 type  3   force =    -0.00317347   -0.01467153    0.02224827

     Total force =     0.105388     Total SCF correction =     0.000004

     Computing stress (Cartesian axis) and pressure

          total   stress  (Ry/bohr**3)                   (kbar)     P=      -51.36
  -0.00032561   0.00000000   0.00000000          -47.90        0.00        0.00
   0.00000000  -0.00033180   0.00000000            0.00      -48.81        0.00
[...]
     1.03534009     0.00000000     0.00000000
     0.00000000     1.02820252     0.00000000
     0.00000000     0.00000000     0.66704848
New lattice vectors in INITIAL alat:
     1.03534009     0.00000000     0.00000000
     0.00000000     1.02820252     0.00000000
     0.00000000     0.00000000     0.66704848
New lattice vectors in NEW alat (for information only):
     1.00000000     0.00000000     0.00000000
     0.00000000     0.99310606     0.00000000
     0.00000000     0.00000000     0.64427958
Discrepancy in bohr =     0.000000    0.000000    0.000000
     new conv_thr            =            1.0E-12 Ry

     new unit-cell volume =   1576.80217 a.u.^3 (   233.65797 Ang^3 )
     density =      2.37382 g/cm^3

[...]

ATOMIC_POSITIONS (crystal)
Ba               0.5000000000        0.5000000000        0.5000026937
Ba               0.0000000000        0.0000000000        0.9999973063
B                0.6337456546        0.2600979756        0.0000138219
B                0.3662543454        0.7399020244        0.0000138219
B                0.1337456546        0.2399020244        0.4999861781
B                0.8662543454        0.7600979756        0.4999861781
H                0.4627454545        0.2834582122       -0.0000031874
H                0.5372545455        0.7165417878       -0.0000031874
H                0.9627454545        0.2165417878        0.5000031874
H                0.0372545455        0.7834582122        0.5000031874
H                0.7140244262        0.4145346493        0.0000118901
H                0.2859755738        0.5854653507        0.0000118901
H                0.2140244262        0.0854653507        0.4999881099
H                0.7859755738        0.9145346493        0.4999881099
H                0.6757239483        0.1728225950        0.7786203557
H                0.3242760517        0.8271774050        0.7786203557
H                0.1757239483        0.3271774050        0.7213796443
H                0.8242760517        0.6728225950        0.7213796443
H                0.3242793223        0.8271783454        0.2214101741
H                0.6757206777        0.1728216546        0.2214101741
H                0.8242793223        0.6728216546        0.2785898259
H                0.1757206777        0.3271783454        0.2785898259

     Writing config-only to output data dir ./pwscf.save/ :
     XML data file
     NEW-OLD atomic charge density approx. for the potential

[...]

     Threshold (ethr) on eigenvalues was too large:
     Diagonalizing with lowered threshold

     Davidson diagonalization with overlap
     ethr =  5.69E-11,  avg # of iterations =  4.0

[...]

     Volume is kept fixed: isostatic pressure set to zero
     Energy error            =      9.1E-09 Ry
     Gradient error          =      6.5E-06 Ry/Bohr
     Cell gradient error     =      1.8E-03 kbar
ibrav =      8
 celldm(1) =     13.50731628
 celldm(2) =      0.99310606
 celldm(3) =      0.64427958
Input lattice vectors:
     1.03534009     0.00000000     0.00000000
     0.00000000     1.02820252     0.00000000
     0.00000000     0.00000000     0.66704848
New lattice vectors in INITIAL alat:
     1.03534009     0.00000000     0.00000000
     0.00000000     1.02820252     0.00000000
     0.00000000     0.00000000     0.66704848
New lattice vectors in NEW alat (for information only):
     1.00000000     0.00000000     0.00000000
     0.00000000     0.99310606     0.00000000
     0.00000000     0.00000000     0.64427958
Discrepancy in bohr =     0.000000    0.000000    0.000000

     bfgs converged in  62 scf cycles and  61 bfgs steps
     (criteria: energy <  1.0E-05 Ry, force <  1.0E-05 Ry/Bohr, cell <  5.0E-01 kbar)

     End of BFGS Geometry Optimization

     Final enthalpy           =    -156.4695545410 Ry

     File ./pwscf.bfgs deleted, as requested
Begin final coordinates
     new unit-cell volume =   1576.80217 a.u.^3 (   233.65797 Ang^3 )
     density =      2.37382 g/cm^3

CELL_PARAMETERS (alat= 13.04626025)
   1.035340091   0.000000000   0.000000000
   0.000000000   1.028202517   0.000000000
   0.000000000   0.000000000   0.667048484

ATOMIC_POSITIONS (crystal)
Ba               0.5000000000        0.5000000000        0.5000026937
Ba               0.0000000000        0.0000000000        0.9999973063
B                0.6337456546        0.2600979756        0.0000138219
B                0.3662543454        0.7399020244        0.0000138219
B                0.1337456546        0.2399020244        0.4999861781
B                0.8662543454        0.7600979756        0.4999861781
H                0.4627454545        0.2834582122       -0.0000031874
H                0.5372545455        0.7165417878       -0.0000031874
H                0.9627454545        0.2165417878        0.5000031874
H                0.0372545455        0.7834582122        0.5000031874
H                0.7140244262        0.4145346493        0.0000118901
H                0.2859755738        0.5854653507        0.0000118901
H                0.2140244262        0.0854653507        0.4999881099
H                0.7859755738        0.9145346493        0.4999881099
H                0.6757239483        0.1728225950        0.7786203557
H                0.3242760517        0.8271774050        0.7786203557
H                0.1757239483        0.3271774050        0.7213796443
H                0.8242760517        0.6728225950        0.7213796443
H                0.3242793223        0.8271783454        0.2214101741
H                0.6757206777        0.1728216546        0.2214101741
H                0.8242793223        0.6728216546        0.2785898259
H                0.1757206777        0.3271783454        0.2785898259
End final coordinates

     Writing config-only to output data dir ./pwscf.save/ :
     XML data file

     Final scf calculation at the relaxed structure.
     The G-vectors are recalculated for the final unit cell
     Results may differ from those at the preceding step.

     Using Slab Decomposition

     Title:
     volume variation

     bravais-lattice index     =            8
     lattice parameter (alat)  =      13.0463  a.u.
     unit-cell volume          =    1576.8022 (a.u.)^3
     number of atoms/cell      =           22
     number of atomic types    =            3
     number of electrons       =        48.00
     number of Kohn-Sham states=           24
     kinetic-energy cutoff     =     100.0000  Ry
     charge density cutoff     =     800.0000  Ry
     scf convergence threshold =      1.0E-12
     mixing beta               =       0.7000
     number of iterations used =            8  plain     mixing
     press convergence thresh. =      5.0E-01
     Exchange-correlation= PBESOL
                           (   1   4  10   8   0   0   0)

     celldm(1)=  13.046260  celldm(2)=   1.025571  celldm(3)=   0.692394
     celldm(4)=   0.000000  celldm(5)=   0.000000  celldm(6)=   0.000000

     crystal axes: (cart. coord. in units of alat)
               a(1) = (   1.035340   0.000000   0.000000 )
               a(2) = (   0.000000   1.028203   0.000000 )
               a(3) = (   0.000000   0.000000   0.667048 )

     reciprocal axes: (cart. coord. in units 2 pi/alat)
               b(1) = (  0.965866  0.000000  0.000000 )
               b(2) = (  0.000000  0.972571  0.000000 )
               b(3) = (  0.000000  0.000000  1.499141 )

     PseudoPot. # 1 for B  read from file:
     /home/mehlhorn/pseudos/b_pbesol_v1.4.uspp.F.UPF
     MD5 check sum: 369b69bef2c3aeed4453bd8b804fd6a8
     Pseudo is Ultrasoft + core correction, Zval =  3.0
     Generated by new atomic code, or converted to UPF format
     Using radial grid of  781 points,  4 beta functions with:
                l(1) =   0
                l(2) =   0
                l(3) =   1
                l(4) =   1
     Q(r) pseudized with  8 coefficients,  rinner =    1.100   1.100   1.100

     PseudoPot. # 2 for Ba read from file:
     /home/mehlhorn/pseudos/Ba.nc.z_10.oncvpsp4.dojo.v4-sp.upf
     MD5 check sum: c10ed334bb677c0554edec7181ce9143
     Pseudo is Norm-conserving + core correction, Zval = 10.0
     Generated using ONCVPSP code by D. R. Hamann
     Using radial grid of 1938 points,  8 beta functions with:
                l(1) =   0
                l(2) =   0
                l(3) =   1
                l(4) =   1
                l(5) =   2
                l(6) =   2
                l(7) =   3
                l(8) =   3

     PseudoPot. # 3 for H  read from file:
     /home/mehlhorn/pseudos/H_ONCV_PBEsol-1.0.upf
     MD5 check sum: 398ef8f67c0a7342c05c87c5e19ea467
     Pseudo is Norm-conserving, Zval =  1.0
     Generated using ONCVPSP code by D. R. Hamann
     Using radial grid of 1180 points,  2 beta functions with:
                l(1) =   0
                l(2) =   0

     atomic species   valence    mass     pseudopotential
     B                 3.00    10.81100     B ( 1.00)
     Ba               10.00   137.32700     Ba( 1.00)
     H                 1.00     1.00794     H ( 1.00)

      4 Sym. Ops. (no inversion) found ( 2 have fractional translation)

   Cartesian axes

     site n.     atom                  positions (alat units)
         1        Ba     tau(   1) = (   0.5176700   0.5141013   0.3335260  )
         2        Ba     tau(   2) = (   0.0000000   0.0000000   0.6670467  )
         3        B      tau(   3) = (   0.6561423   0.2674334   0.0000092  )
         4        B      tau(   4) = (   0.3791978   0.7607691   0.0000092  )
         5        B      tau(   5) = (   0.1384722   0.2466679   0.3335150  )
         6        B      tau(   6) = (   0.8968679   0.7815347   0.3335150  )
         7        H      tau(   7) = (   0.4790989   0.2914524  -0.0000021  )
         8        H      tau(   8) = (   0.5562412   0.7367501  -0.0000021  )
         9        H      tau(   9) = (   0.9967690   0.2226488   0.3335264  )
        10        H      tau(  10) = (   0.0385711   0.8055537   0.3335264  )
        11        H      tau(  11) = (   0.7392581   0.4262256   0.0000079  )
        12        H      tau(  12) = (   0.2960820   0.6019769   0.0000079  )
        13        H      tau(  13) = (   0.2215881   0.0878757   0.3335163  )
        14        H      tau(  14) = (   0.8137520   0.9403268   0.3335163  )
        15        H      tau(  15) = (   0.6996041   0.1776966   0.5193775  )
        16        H      tau(  16) = (   0.3357360   0.8505059   0.5193775  )
        17        H      tau(  17) = (   0.1819340   0.3364046   0.4811952  )
        18        H      tau(  18) = (   0.8534060   0.6917979   0.4811952  )
        19        H      tau(  19) = (   0.3357394   0.8505069   0.1476913  )
        20        H      tau(  20) = (   0.6996007   0.1776957   0.1476913  )
        21        H      tau(  21) = (   0.8534094   0.6917969   0.1858329  )
        22        H      tau(  22) = (   0.1819307   0.3364056   0.1858329  )

     number of k points=    27
                       cart. coord. in units 2pi/alat
        k(    1) = (   0.0000000   0.0000000   0.0000000), wk =   0.0312500
        k(    2) = (   0.0000000   0.0000000   0.3747854), wk =   0.0625000
        k(    3) = (   0.0000000   0.0000000  -0.7495707), wk =   0.0312500
        k(    4) = (   0.0000000   0.2431428   0.0000000), wk =   0.0625000
        k(    5) = (   0.0000000   0.2431428   0.3747854), wk =   0.1250000
        k(    6) = (   0.0000000   0.2431428  -0.7495707), wk =   0.0625000
        k(    7) = (   0.0000000  -0.4862855   0.0000000), wk =   0.0312500
        k(    8) = (   0.0000000  -0.4862855   0.3747854), wk =   0.0625000
        k(    9) = (   0.0000000  -0.4862855  -0.7495707), wk =   0.0312500
        k(   10) = (   0.2414666   0.0000000   0.0000000), wk =   0.0625000
        k(   11) = (   0.2414666   0.0000000   0.3747854), wk =   0.1250000
        k(   12) = (   0.2414666   0.0000000  -0.7495707), wk =   0.0625000
        k(   13) = (   0.2414666   0.2431428   0.0000000), wk =   0.1250000
        k(   14) = (   0.2414666   0.2431428   0.3747854), wk =   0.2500000
        k(   15) = (   0.2414666   0.2431428  -0.7495707), wk =   0.1250000
        k(   16) = (   0.2414666  -0.4862855   0.0000000), wk =   0.0625000
        k(   17) = (   0.2414666  -0.4862855   0.3747854), wk =   0.1250000
        k(   18) = (   0.2414666  -0.4862855  -0.7495707), wk =   0.0625000
        k(   19) = (  -0.4829331   0.0000000   0.0000000), wk =   0.0312500
        k(   20) = (  -0.4829331   0.0000000   0.3747854), wk =   0.0625000
        k(   21) = (  -0.4829331   0.0000000  -0.7495707), wk =   0.0312500
        k(   22) = (  -0.4829331   0.2431428   0.0000000), wk =   0.0625000
        k(   23) = (  -0.4829331   0.2431428   0.3747854), wk =   0.1250000
        k(   24) = (  -0.4829331   0.2431428  -0.7495707), wk =   0.0625000
        k(   25) = (  -0.4829331  -0.4862855   0.0000000), wk =   0.0312500
        k(   26) = (  -0.4829331  -0.4862855   0.3747854), wk =   0.0625000
        k(   27) = (  -0.4829331  -0.4862855  -0.7495707), wk =   0.0312500

     Initial potential from superposition of free atoms

     starting charge      47.9682, renormalised to      48.0000
     Starting wfcs are   42 randomized atomic wfcs

     Self-consistent Calculation

[...]

     total energy              =    -156.46955636 Ry
     estimated scf accuracy    <          1.9E-12 Ry

     iteration # 13     ecut=   100.00 Ry     beta= 0.70
     Davidson diagonalization with overlap
     ethr =  1.00E-13,  avg # of iterations =  2.1

     End of self-consistent calculation

[...]

          k = 0.2415-0.4863-0.7496 ( 26640 PWs)   bands (ev):

[...]

          k =-0.4829-0.4863-0.7496 ( 26656 PWs)   bands (ev):

   -24.6163 -24.6163 -10.2824 -10.2824  -9.8972  -9.8972  -9.8860  -9.8860
    -5.5872  -5.5872  -5.1992  -5.1992  -2.0295  -2.0295  -1.5879  -1.5879
    -0.4987  -0.4987  -0.3141  -0.3141  -0.2495  -0.2495  -0.0504  -0.0504

     highest occupied level (ev):     0.0673

!    total energy              =    -156.46955636 Ry
     estimated scf accuracy    <          1.6E-13 Ry

     The total energy is the sum of the following terms:
     one-electron contribution =     -34.38043332 Ry
     hartree contribution      =      30.33111367 Ry
     xc contribution           =     -49.05989932 Ry
     ewald contribution        =    -103.36033739 Ry

     convergence has been achieved in  13 iterations

     Forces acting on atoms (cartesian axes, Ry/au):

     atom    1 type  2   force =     0.00000000    0.00000000    0.00000237
     atom    2 type  2   force =     0.00000000    0.00000000   -0.00000237
     atom    3 type  1   force =    -0.00000168    0.00000500   -0.00000518
     atom    4 type  1   force =     0.00000168   -0.00000500   -0.00000518
     atom    5 type  1   force =    -0.00000168   -0.00000500    0.00000518
     atom    6 type  1   force =     0.00000168    0.00000500    0.00000518
     atom    7 type  3   force =     0.00000222   -0.00000183    0.00000653
     atom    8 type  3   force =    -0.00000222    0.00000183    0.00000653
     atom    9 type  3   force =     0.00000222    0.00000183   -0.00000653
     atom   10 type  3   force =    -0.00000222   -0.00000183   -0.00000653
     atom   11 type  3   force =    -0.00000056   -0.00000139    0.00000083
     atom   12 type  3   force =     0.00000056    0.00000139    0.00000083
     atom   13 type  3   force =    -0.00000056    0.00000139   -0.00000083
     atom   14 type  3   force =     0.00000056   -0.00000139   -0.00000083
     atom   15 type  3   force =     0.00000250   -0.00000312   -0.00000413
     atom   16 type  3   force =    -0.00000250    0.00000312   -0.00000413
     atom   17 type  3   force =     0.00000250    0.00000312    0.00000413
     atom   18 type  3   force =    -0.00000250   -0.00000312    0.00000413
     atom   19 type  3   force =     0.00000487   -0.00000309   -0.00000233
     atom   20 type  3   force =    -0.00000487    0.00000309   -0.00000233
     atom   21 type  3   force =     0.00000487    0.00000309    0.00000233
     atom   22 type  3   force =    -0.00000487   -0.00000309    0.00000233

     Total force =     0.000027     Total SCF correction =     0.000000

     Computing stress (Cartesian axis) and pressure

          total   stress  (Ry/bohr**3)                   (kbar)     P=       -6.77
  -0.00004600   0.00000000   0.00000000           -6.77        0.00        0.00
   0.00000000  -0.00004603   0.00000000            0.00       -6.77        0.00
   0.00000000   0.00000000  -0.00004608            0.00        0.00       -6.78

     Writing all to output data dir ./pwscf.save/ :
     XML data file, charge density, pseudopotentials, collected wavefunctions

     General routines

     Parallel routines

   This run was terminated on:  18: 6: 9   6Aug2024

   JOB DONE.