     Program PHONON v.7.3.1 starts on 12Jul2024 at 12:20:25

     Waiting for input...
     Reading input from standard input

     Reading xml data from directory:

     ./pwscf.save/

     R & G space division:  proc/nbgrp/npool/nimage =      24
     Subspace diagonalization in iterative solution of the eigenvalue problem:
     a serial algorithm will be used

     IMPORTANT: XC functional enforced from input :
     Exchange-correlation= PBESOL
                           (   1   4  10   8   0   0   0)
     Any further DFT definition will be discarded
     Please, verify this is what you really want

     Using Slab Decomposition

     Reading collected, re-writing distributed wavefunctions in ./

     Dynamical matrices for ( 3, 3, 3)  uniform grid of q-points
     (   8 q-points):
       N         xq(1)         xq(2)         xq(3)
       1   0.000000000   0.000000000   0.000000000
       2   0.000000000   0.000000000   0.473566411
       3   0.000000000   0.321683215   0.000000000
       4   0.000000000   0.321683215   0.473566411
       5   0.333333333   0.000000000   0.000000000
       6   0.333333333   0.000000000   0.473566411
       7   0.333333333   0.321683215   0.000000000
       8   0.333333333   0.321683215   0.473566411

     Number and degeneracy of irreps per q-point
       N         xq(1)         xq(2)         xq(3)   N irreps
       1   0.000000000   0.000000000   0.000000000      66
     No degeneracy
       2   0.000000000   0.000000000   0.473566411      66
     No degeneracy
Eigenvectors exchange needed   29   62
       3   0.000000000   0.321683215   0.000000000      65
        1   1   1   1   1   1   1   1   1   1   1   1   1   1   1   1   1   1
   1   1   1   1   1   1   1   1   1   1   2   1   1   1   1   1   1   1
   1   1   1   1   1   1   1   1   1   1   1   1   1   1   1   1   1   1
   1   1   1   1   1   1   1   1   1   1   1
       4   0.000000000   0.321683215   0.473566411      66
     No degeneracy
       5   0.333333333   0.000000000   0.000000000      66
     No degeneracy
       6   0.333333333   0.000000000   0.473566411      66
     No degeneracy
       7   0.333333333   0.321683215   0.000000000      66
     No degeneracy
       8   0.333333333   0.321683215   0.473566411      66
     No degeneracy

     Saving dvscf to file. Distribute only q points, not irreducible representations.

     Calculation of q =    0.0000000   0.0000000   0.0000000

     bravais-lattice index     =            8
     lattice parameter (alat)  =      12.3594  a.u.
     unit-cell volume          =    1377.0263 (a.u.)^3
     number of atoms/cell      =           22
     number of atomic types    =            3
     kinetic-energy cut-off    =     100.0000  Ry
     charge density cut-off    =     800.0000  Ry
     convergence threshold     =      1.0E-14
     beta                      =       0.7000
     number of iterations used =            4
     Exchange-correlation= PBESOL
                           (   1   4  10   8   0   0   0)

     celldm(1)=   12.35942  celldm(2)=    1.03622  celldm(3)=    0.70388
     celldm(4)=    0.00000  celldm(5)=    0.00000  celldm(6)=    0.00000

     crystal axes: (cart. coord. in units of alat)
               a(1) = (  1.0000  0.0000  0.0000 )
               a(2) = (  0.0000  1.0362  0.0000 )
               a(3) = (  0.0000  0.0000  0.7039 )

     reciprocal axes: (cart. coord. in units 2 pi/alat)
               b(1) = (  1.0000  0.0000  0.0000 )
               b(2) = (  0.0000  0.9650  0.0000 )
               b(3) = (  0.0000  0.0000  1.4207 )

     Atoms inside the unit cell:

     Cartesian axes

     site n.  atom      mass           positions (alat units)
        1  Ba    137.3270   tau(    1) = (    0.50000    0.51811    0.35194  )
        2  Ba    137.3270   tau(    2) = (    0.00000    0.00000    0.70388  )
        3  B      10.8110   tau(    3) = (    0.60533    0.24461   -0.00000  )
        4  B      10.8110   tau(    4) = (    0.39467    0.79161   -0.00000  )
        5  B      10.8110   tau(    5) = (    0.10533    0.27350    0.35194  )
        6  B      10.8110   tau(    6) = (    0.89467    0.76271    0.35194  )
        7  H       1.0079   tau(    7) = (    0.42691    0.30388   -0.00001  )
        8  H       1.0079   tau(    8) = (    0.57309    0.73233   -0.00001  )
        9  H       1.0079   tau(    9) = (    0.92691    0.21422    0.35195  )
       10  H       1.0079   tau(   10) = (    0.07309    0.82199    0.35195  )
       11  H       1.0079   tau(   11) = (    0.72281    0.39321    0.00001  )
       12  H       1.0079   tau(   12) = (    0.27719    0.64300    0.00001  )
       13  H       1.0079   tau(   13) = (    0.22281    0.12490    0.35193  )
       14  H       1.0079   tau(   14) = (    0.77719    0.91132    0.35193  )
       15  H       1.0079   tau(   15) = (    0.63300    0.14246    0.54880  )
       16  H       1.0079   tau(   16) = (    0.36700    0.89376    0.54880  )
       17  H       1.0079   tau(   17) = (    0.13300    0.37565    0.50702  )
       18  H       1.0079   tau(   18) = (    0.86700    0.66057    0.50702  )
       19  H       1.0079   tau(   19) = (    0.36702    0.89375    0.15508  )
       20  H       1.0079   tau(   20) = (    0.63298    0.14247    0.15508  )
       21  H       1.0079   tau(   21) = (    0.86702    0.66057    0.19686  )
       22  H       1.0079   tau(   22) = (    0.13298    0.37564    0.19686  )

     Computing dynamical matrix for
                    q = (   0.0000000   0.0000000   0.0000000 )

      5 Sym.Ops. (with q -> -q+G )

     G cutoff = 3095.4677  (  21918 G-vectors)     FFT grid: (120,120, 80)
     G cutoff = 1547.7339  (   7752 G-vectors)  smooth grid: ( 80, 90, 60)
     number of k points=    27

     PseudoPot. # 1 for B  read from file:
     /home/mehlhorn/pseudos/b_pbesol_v1.4.uspp.F.UPF
     MD5 check sum: 369b69bef2c3aeed4453bd8b804fd6a8
     Pseudo is Ultrasoft + core correction, Zval =  3.0
     Generated by new atomic code, or converted to UPF format
     Using radial grid of  781 points,  4 beta functions with:
                l(1) =   0
                l(2) =   0
                l(3) =   1
                l(4) =   1
     Q(r) pseudized with  8 coefficients,  rinner =    1.100   1.100   1.100

     PseudoPot. # 2 for Ba read from file:
     /home/mehlhorn/pseudos/Ba.nc.z_10.oncvpsp4.dojo.v4-sp.upf
     MD5 check sum: c10ed334bb677c0554edec7181ce9143
     Pseudo is Norm-conserving + core correction, Zval = 10.0
     Generated using ONCVPSP code by D. R. Hamann
     Using radial grid of 1938 points,  8 beta functions with:
                l(1) =   0
                l(2) =   0
                l(3) =   1
                l(4) =   1
                l(5) =   2
                l(6) =   2
                l(7) =   3
                l(8) =   3

     PseudoPot. # 3 for H  read from file:
     /home/mehlhorn/pseudos/H_ONCV_PBEsol-1.0.upf
     MD5 check sum: 398ef8f67c0a7342c05c87c5e19ea467
     Pseudo is Norm-conserving, Zval =  1.0
     Generated using ONCVPSP code by D. R. Hamann
     Using radial grid of 1180 points,  2 beta functions with:
                l(1) =   0
                l(2) =   0

     Mode symmetry, D_2  (222)  point group:

     Electric field:
     Dielectric constant
     Born effective charges in two ways

     Atomic displacements:
     There are   66 irreducible representations

     Representation     1      1 modes -  To be done

[...]

     Alpha used in Ewald sum =   2.8000

     Electric Fields Calculation

      thresh= 1.000E-02 alpha_mix =  0.700 |ddv_scf|^2 =  5.771E-09

[...]

     End of electric fields calculation

          Dielectric constant in cartesian axis

          (       3.210933980       0.000000000       0.000000000 )
          (       0.000000000       3.273821036       0.000000000 )
          (       0.000000000       0.000000000       3.394831025 )

          Effective charges (d Force / dE) in cartesian axis without acoustic sum rule applied (asr)

           atom    1  Ba    Mean Z*:        2.66933
      Ex  (        2.51900       -0.03869        0.00000 )
      Ey  (        0.28792        2.53597        0.00000 )
      Ez  (        0.00000        0.00000        2.95303 )
           atom    2  Ba    Mean Z*:        2.66933
      Ex  (        2.51900        0.03869        0.00000 )
      Ey  (       -0.28792        2.53597        0.00000 )
      Ez  (        0.00000        0.00000        2.95303 )
           atom    3  B     Mean Z*:       -0.13539
      Ex  (       -0.15161        0.03244       -0.00002 )
      Ey  (        0.17474       -0.05125        0.00005 )
      Ez  (        0.00001        0.00004       -0.20331 )
           atom    4  B     Mean Z*:       -0.13539
      Ex  (       -0.15161        0.03244        0.00002 )
      Ey  (        0.17474       -0.05125       -0.00005 )
      Ez  (       -0.00001       -0.00004       -0.20331 )
           atom    5  B     Mean Z*:       -0.13539
      Ex  (       -0.15161       -0.03244        0.00002 )
      Ey  (       -0.17474       -0.05125        0.00005 )
      Ez  (       -0.00001        0.00004       -0.20331 )
           atom    6  B     Mean Z*:       -0.13539
      Ex  (       -0.15161       -0.03244       -0.00002 )
      Ey  (       -0.17474       -0.05125       -0.00005 )
      Ez  (        0.00001       -0.00004       -0.20331 )
           atom    7  H     Mean Z*:       -0.30758
      Ex  (       -0.42227        0.13179       -0.00000 )
      Ey  (        0.13973       -0.25481       -0.00000 )
      Ez  (       -0.00002        0.00000       -0.24566 )
           atom    8  H     Mean Z*:       -0.30758
      Ex  (       -0.42227        0.13179        0.00000 )
      Ey  (        0.13973       -0.25481        0.00000 )
      Ez  (        0.00002       -0.00000       -0.24566 )
           atom    9  H     Mean Z*:       -0.30758
      Ex  (       -0.42227       -0.13179        0.00000 )
      Ey  (       -0.13973       -0.25481       -0.00000 )
      Ez  (        0.00002        0.00000       -0.24566 )
           atom   10  H     Mean Z*:       -0.30758
      Ex  (       -0.42227       -0.13179       -0.00000 )
      Ey  (       -0.13973       -0.25481        0.00000 )
      Ez  (       -0.00002       -0.00000       -0.24566 )
           atom   11  H     Mean Z*:       -0.31729
      Ex  (       -0.27973       -0.04642        0.00001 )
      Ey  (       -0.11319       -0.42774       -0.00005 )
      Ez  (        0.00001       -0.00003       -0.24439 )
           atom   12  H     Mean Z*:       -0.31729
      Ex  (       -0.27973       -0.04642       -0.00001 )
      Ey  (       -0.11319       -0.42774        0.00005 )
      Ez  (       -0.00001        0.00003       -0.24439 )
           atom   13  H     Mean Z*:       -0.31729
      Ex  (       -0.27973        0.04642       -0.00001 )
      Ey  (        0.11319       -0.42774       -0.00005 )
      Ez  (       -0.00001       -0.00003       -0.24439 )
           atom   14  H     Mean Z*:       -0.31729
      Ex  (       -0.27973        0.04642        0.00001 )
      Ey  (        0.11319       -0.42774        0.00005 )
      Ez  (        0.00001        0.00003       -0.24439 )
[...]

[...]

     atomic species   valence    mass     pseudopotential
     B                 3.00    10.81100     B ( 1.00)
     Ba               10.00   137.32700     Ba( 1.00)
     H                 1.00     1.00794     H ( 1.00)

      4 Sym. Ops. (no inversion) found

[...]

     site n.     atom                  positions (alat units)
         1        Ba     tau(   1) = (   0.5000000   0.5181081   0.3519403  )
         2        Ba     tau(   2) = (   0.0000000   0.0000000   0.7038778  )
         3        B      tau(   3) = (   0.6053315   0.2446057  -0.0000020  )
         4        B      tau(   4) = (   0.3946685   0.7916104  -0.0000020  )
         5        B      tau(   5) = (   0.1053315   0.2735023   0.3519414  )
         6        B      tau(   6) = (   0.8946685   0.7627138   0.3519414  )
         7        H      tau(   7) = (   0.4269074   0.3038844  -0.0000062  )
         8        H      tau(   8) = (   0.5730926   0.7323317  -0.0000062  )
         9        H      tau(   9) = (   0.9269074   0.2142237   0.3519456  )
        10        H      tau(  10) = (   0.0730926   0.8219924   0.3519456  )
        11        H      tau(  11) = (   0.7228105   0.3932128   0.0000142  )
        12        H      tau(  12) = (   0.2771895   0.6430034   0.0000142  )
        13        H      tau(  13) = (   0.2228105   0.1248953   0.3519252  )
        14        H      tau(  14) = (   0.7771895   0.9113208   0.3519252  )
        15        H      tau(  15) = (   0.6329964   0.1424585   0.5487976  )
        16        H      tau(  16) = (   0.3670036   0.8937576   0.5487976  )
        17        H      tau(  17) = (   0.1329964   0.3756496   0.5070205  )
        18        H      tau(  18) = (   0.8670036   0.6605665   0.5070205  )
        19        H      tau(  19) = (   0.3670225   0.8937511   0.1550823  )
        20        H      tau(  20) = (   0.6329775   0.1424650   0.1550823  )
        21        H      tau(  21) = (   0.8670225   0.6605731   0.1968571  )
        22        H      tau(  22) = (   0.1329775   0.3756430   0.1968571  )

     number of k points=   250

     Number of k-points >= 100: set verbosity='high' to print them.

     The potential is recalculated from file :
     ./_ph0/pwscf.q_8/pwscf.save/charge-density

     Starting wfcs are   42 atomic wfcs

     Band Structure Calculation
     Davidson diagonalization with overlap

     ethr =  2.08E-11,  avg # of iterations = 22.1

     End of band structure calculation

     Number of k-points >= 100: set verbosity='high' to print the bands.

     highest occupied level (ev):     1.2203

     Writing config to output data dir ./_ph0/pwscf.q_8/pwscf.save/ :
     XML data file

     bravais-lattice index     =            8
     lattice parameter (alat)  =      12.3594  a.u.
     unit-cell volume          =    1377.0263 (a.u.)^3
     number of atoms/cell      =           22
     number of atomic types    =            3
     kinetic-energy cut-off    =     100.0000  Ry
     charge density cut-off    =     800.0000  Ry
     convergence threshold     =      1.0E-14
     beta                      =       0.7000
     number of iterations used =            4
     Exchange-correlation= PBESOL
                           (   1   4  10   8   0   0   0)

     celldm(1)=   12.35942  celldm(2)=    1.03622  celldm(3)=    0.70388
     celldm(4)=    0.00000  celldm(5)=    0.00000  celldm(6)=    0.00000

     crystal axes: (cart. coord. in units of alat)
               a(1) = (  1.0000  0.0000  0.0000 )
               a(2) = (  0.0000  1.0362  0.0000 )
               a(3) = (  0.0000  0.0000  0.7039 )

     reciprocal axes: (cart. coord. in units 2 pi/alat)
               b(1) = (  1.0000  0.0000  0.0000 )
               b(2) = (  0.0000  0.9650  0.0000 )
               b(3) = (  0.0000  0.0000  1.4207 )

     Atoms inside the unit cell:

     Cartesian axes

     site n.  atom      mass           positions (alat units)
        1  Ba    137.3270   tau(    1) = (    0.50000    0.51811    0.35194  )
        2  Ba    137.3270   tau(    2) = (    0.00000    0.00000    0.70388  )
        3  B      10.8110   tau(    3) = (    0.60533    0.24461   -0.00000  )
        4  B      10.8110   tau(    4) = (    0.39467    0.79161   -0.00000  )
        5  B      10.8110   tau(    5) = (    0.10533    0.27350    0.35194  )
        6  B      10.8110   tau(    6) = (    0.89467    0.76271    0.35194  )
        7  H       1.0079   tau(    7) = (    0.42691    0.30388   -0.00001  )
        8  H       1.0079   tau(    8) = (    0.57309    0.73233   -0.00001  )
        9  H       1.0079   tau(    9) = (    0.92691    0.21422    0.35195  )
       10  H       1.0079   tau(   10) = (    0.07309    0.82199    0.35195  )
       11  H       1.0079   tau(   11) = (    0.72281    0.39321    0.00001  )
       12  H       1.0079   tau(   12) = (    0.27719    0.64300    0.00001  )
       13  H       1.0079   tau(   13) = (    0.22281    0.12490    0.35193  )
       14  H       1.0079   tau(   14) = (    0.77719    0.91132    0.35193  )
       15  H       1.0079   tau(   15) = (    0.63300    0.14246    0.54880  )
       16  H       1.0079   tau(   16) = (    0.36700    0.89376    0.54880  )
       17  H       1.0079   tau(   17) = (    0.13300    0.37565    0.50702  )
       18  H       1.0079   tau(   18) = (    0.86700    0.66057    0.50702  )
       19  H       1.0079   tau(   19) = (    0.36702    0.89375    0.15508  )
       20  H       1.0079   tau(   20) = (    0.63298    0.14247    0.15508  )
       21  H       1.0079   tau(   21) = (    0.86702    0.66057    0.19686  )
       22  H       1.0079   tau(   22) = (    0.13298    0.37564    0.19686  )

     Computing dynamical matrix for
                    q = (   0.3333333   0.3216832   0.4735664 )

     No symmetry!

     G cutoff = 3095.4677  (  21918 G-vectors)     FFT grid: (120,120, 80)
     G cutoff = 1547.7339  (   7752 G-vectors)  smooth grid: ( 80, 90, 60)
     number of k points=   250

     PseudoPot. # 1 for B  read from file:
     /home/mehlhorn/pseudos/b_pbesol_v1.4.uspp.F.UPF
     MD5 check sum: 369b69bef2c3aeed4453bd8b804fd6a8
     Pseudo is Ultrasoft + core correction, Zval =  3.0
     Generated by new atomic code, or converted to UPF format
     Using radial grid of  781 points,  4 beta functions with:
                l(1) =   0
                l(2) =   0
                l(3) =   1
                l(4) =   1
     Q(r) pseudized with  8 coefficients,  rinner =    1.100   1.100   1.100

     PseudoPot. # 2 for Ba read from file:
     /home/mehlhorn/pseudos/Ba.nc.z_10.oncvpsp4.dojo.v4-sp.upf
     MD5 check sum: c10ed334bb677c0554edec7181ce9143
     Pseudo is Norm-conserving + core correction, Zval = 10.0
     Generated using ONCVPSP code by D. R. Hamann
     Using radial grid of 1938 points,  8 beta functions with:
                l(1) =   0
                l(2) =   0
                l(3) =   1
                l(4) =   1
                l(5) =   2
                l(6) =   2
                l(7) =   3
                l(8) =   3

     PseudoPot. # 3 for H  read from file:
     /home/mehlhorn/pseudos/H_ONCV_PBEsol-1.0.upf
     MD5 check sum: 398ef8f67c0a7342c05c87c5e19ea467
     Pseudo is Norm-conserving, Zval =  1.0
     Generated using ONCVPSP code by D. R. Hamann
     Using radial grid of 1180 points,  2 beta functions with:
                l(1) =   0
                l(2) =   0

[...]

     Atomic displacements:
     There are   66 irreducible representations

[...]

     Representation    66      1 modes -  To be done

     Alpha used in Ewald sum =   2.8000

[...]

     Representation #  66 mode #  66

     Self-consistent Calculation

[...]

      thresh= 1.223E-08 alpha_mix =  0.700 |ddv_scf|^2 =  1.298E-15

     End of self-consistent calculation

     Convergence has been achieved

     Number of q in the star =    4
     List of q in the star:
          1   0.333333333   0.321683215   0.473566411
          2   0.333333333  -0.321683215  -0.473566411
          3  -0.333333333   0.321683215  -0.473566411
          4  -0.333333333  -0.321683215   0.473566411
     In addition there is the -q list:
          1  -0.333333333  -0.321683215  -0.473566411
          2  -0.333333333   0.321683215   0.473566411
          3   0.333333333  -0.321683215   0.473566411
          4   0.333333333   0.321683215  -0.473566411

     Diagonalizing the dynamical matrix

     q = (    0.333333333   0.321683215   0.473566411 )

     freq (    1) =       1.263825 [THz] =      42.156681 [cm-1]
     freq (    2) =       1.313113 [THz] =      43.800743 [cm-1]
     freq (    3) =       1.898323 [THz] =      63.321233 [cm-1]
     freq (    4) =       2.135598 [THz] =      71.235893 [cm-1]
     freq (    5) =       2.981556 [THz] =      99.454012 [cm-1]
     freq (    6) =       3.088496 [THz] =     103.021134 [cm-1]
     freq (    7) =       5.113721 [THz] =     170.575383 [cm-1]
     freq (    8) =       5.254771 [THz] =     175.280291 [cm-1]
     freq (    9) =       6.083707 [THz] =     202.930633 [cm-1]
     freq (   10) =       6.362880 [THz] =     212.242823 [cm-1]
     freq (   11) =       6.779860 [THz] =     226.151789 [cm-1]
     freq (   12) =       6.798797 [THz] =     226.783463 [cm-1]
     freq (   13) =       7.108372 [THz] =     237.109776 [cm-1]
     freq (   14) =       7.466945 [THz] =     249.070487 [cm-1]
     freq (   15) =       7.932572 [THz] =     264.602131 [cm-1]
     freq (   16) =       8.021735 [THz] =     267.576285 [cm-1]
     freq (   17) =       8.946759 [THz] =     298.431768 [cm-1]
     freq (   18) =       9.007550 [THz] =     300.459523 [cm-1]
     freq (   19) =       9.432491 [THz] =     314.634042 [cm-1]
     freq (   20) =       9.476421 [THz] =     316.099369 [cm-1]
     freq (   21) =      10.125641 [THz] =     337.755028 [cm-1]
     freq (   22) =      10.340319 [THz] =     344.915906 [cm-1]
     freq (   23) =      10.953266 [THz] =     365.361626 [cm-1]
     freq (   24) =      10.975665 [THz] =     366.108791 [cm-1]
     freq (   25) =      11.330752 [THz] =     377.953206 [cm-1]
     freq (   26) =      11.422160 [THz] =     381.002258 [cm-1]
     freq (   27) =      13.954011 [THz] =     465.455721 [cm-1]
     freq (   28) =      14.036629 [THz] =     468.211558 [cm-1]
     freq (   29) =      14.064339 [THz] =     469.135857 [cm-1]
     freq (   30) =      14.165757 [THz] =     472.518805 [cm-1]
     freq (   31) =      30.920025 [THz] =    1031.381024 [cm-1]
     freq (   32) =      30.941505 [THz] =    1032.097521 [cm-1]
     freq (   33) =      31.132093 [THz] =    1038.454830 [cm-1]
     freq (   34) =      31.158639 [THz] =    1039.340325 [cm-1]
     freq (   35) =      32.080459 [THz] =    1070.088942 [cm-1]
     freq (   36) =      32.096521 [THz] =    1070.624714 [cm-1]
     freq (   37) =      32.135190 [THz] =    1071.914542 [cm-1]
     freq (   38) =      32.186885 [THz] =    1073.638907 [cm-1]
     freq (   39) =      32.407032 [THz] =    1080.982244 [cm-1]
     freq (   40) =      32.442152 [THz] =    1082.153691 [cm-1]
     freq (   41) =      32.581360 [THz] =    1086.797172 [cm-1]
     freq (   42) =      32.628551 [THz] =    1088.371325 [cm-1]
     freq (   43) =      35.904239 [THz] =    1197.636506 [cm-1]
     freq (   44) =      35.942014 [THz] =    1198.896550 [cm-1]
     freq (   45) =      36.138457 [THz] =    1205.449181 [cm-1]
     freq (   46) =      36.184125 [THz] =    1206.972483 [cm-1]
     freq (   47) =      36.247919 [THz] =    1209.100415 [cm-1]
     freq (   48) =      36.270363 [THz] =    1209.849092 [cm-1]
     freq (   49) =      36.375053 [THz] =    1213.341156 [cm-1]
     freq (   50) =      36.394634 [THz] =    1213.994323 [cm-1]
     freq (   51) =      68.245099 [THz] =    2276.411467 [cm-1]
     freq (   52) =      68.267554 [THz] =    2277.160477 [cm-1]
     freq (   53) =      68.303251 [THz] =    2278.351229 [cm-1]
     freq (   54) =      68.348686 [THz] =    2279.866775 [cm-1]
     freq (   55) =      70.314866 [THz] =    2345.451456 [cm-1]
     freq (   56) =      70.320649 [THz] =    2345.644374 [cm-1]
     freq (   57) =      70.458531 [THz] =    2350.243622 [cm-1]
     freq (   58) =      70.463139 [THz] =    2350.397334 [cm-1]
     freq (   59) =      71.215386 [THz] =    2375.489575 [cm-1]
     freq (   60) =      71.225584 [THz] =    2375.829756 [cm-1]
     freq (   61) =      71.304905 [THz] =    2378.475608 [cm-1]
     freq (   62) =      71.325583 [THz] =    2379.165346 [cm-1]
     freq (   63) =      71.724619 [THz] =    2392.475751 [cm-1]
     freq (   64) =      71.742258 [THz] =    2393.064126 [cm-1]
     freq (   65) =      71.883104 [THz] =    2397.762259 [cm-1]
     freq (   66) =      71.919312 [THz] =    2398.970023 [cm-1]

     Mode symmetry, C_1 (1)     point group:

     freq (   1-   1) =         42.2  [cm-1]   --> A
     freq (   2-   2) =         43.8  [cm-1]   --> A
     freq (   3-   3) =         63.3  [cm-1]   --> A
     freq (   4-   4) =         71.2  [cm-1]   --> A
     freq (   5-   5) =         99.5  [cm-1]   --> A
     freq (   6-   6) =        103.0  [cm-1]   --> A
     freq (   7-   7) =        170.6  [cm-1]   --> A
     freq (   8-   8) =        175.3  [cm-1]   --> A
     freq (   9-   9) =        202.9  [cm-1]   --> A
     freq (  10-  10) =        212.2  [cm-1]   --> A
     freq (  11-  11) =        226.2  [cm-1]   --> A
     freq (  12-  12) =        226.8  [cm-1]   --> A
     freq (  13-  13) =        237.1  [cm-1]   --> A
     freq (  14-  14) =        249.1  [cm-1]   --> A
     freq (  15-  15) =        264.6  [cm-1]   --> A
     freq (  16-  16) =        267.6  [cm-1]   --> A
     freq (  17-  17) =        298.4  [cm-1]   --> A
     freq (  18-  18) =        300.5  [cm-1]   --> A
     freq (  19-  19) =        314.6  [cm-1]   --> A
     freq (  20-  20) =        316.1  [cm-1]   --> A
     freq (  21-  21) =        337.8  [cm-1]   --> A
     freq (  22-  22) =        344.9  [cm-1]   --> A
     freq (  23-  23) =        365.4  [cm-1]   --> A
     freq (  24-  24) =        366.1  [cm-1]   --> A
     freq (  25-  25) =        378.0  [cm-1]   --> A
     freq (  26-  26) =        381.0  [cm-1]   --> A
     freq (  27-  27) =        465.5  [cm-1]   --> A
     freq (  28-  28) =        468.2  [cm-1]   --> A
     freq (  29-  29) =        469.1  [cm-1]   --> A
     freq (  30-  30) =        472.5  [cm-1]   --> A
     freq (  31-  31) =       1031.4  [cm-1]   --> A
     freq (  32-  32) =       1032.1  [cm-1]   --> A
     freq (  33-  33) =       1038.5  [cm-1]   --> A
     freq (  34-  34) =       1039.3  [cm-1]   --> A
     freq (  35-  35) =       1070.1  [cm-1]   --> A
     freq (  36-  36) =       1070.6  [cm-1]   --> A
     freq (  37-  37) =       1071.9  [cm-1]   --> A
     freq (  38-  38) =       1073.6  [cm-1]   --> A
     freq (  39-  39) =       1081.0  [cm-1]   --> A
     freq (  40-  40) =       1082.2  [cm-1]   --> A
     freq (  41-  41) =       1086.8  [cm-1]   --> A
     freq (  42-  42) =       1088.4  [cm-1]   --> A
     freq (  43-  43) =       1197.6  [cm-1]   --> A
     freq (  44-  44) =       1198.9  [cm-1]   --> A
     freq (  45-  45) =       1205.4  [cm-1]   --> A
     freq (  46-  46) =       1207.0  [cm-1]   --> A
     freq (  47-  47) =       1209.1  [cm-1]   --> A
     freq (  48-  48) =       1209.8  [cm-1]   --> A
     freq (  49-  49) =       1213.3  [cm-1]   --> A
     freq (  50-  50) =       1214.0  [cm-1]   --> A
     freq (  51-  51) =       2276.4  [cm-1]   --> A
     freq (  52-  52) =       2277.2  [cm-1]   --> A
     freq (  53-  53) =       2278.4  [cm-1]   --> A
     freq (  54-  54) =       2279.9  [cm-1]   --> A
     freq (  55-  55) =       2345.5  [cm-1]   --> A
     freq (  56-  56) =       2345.6  [cm-1]   --> A
     freq (  57-  57) =       2350.2  [cm-1]   --> A
     freq (  58-  58) =       2350.4  [cm-1]   --> A
     freq (  59-  59) =       2375.5  [cm-1]   --> A
     freq (  60-  60) =       2375.8  [cm-1]   --> A
     freq (  61-  61) =       2378.5  [cm-1]   --> A
     freq (  62-  62) =       2379.2  [cm-1]   --> A
     freq (  63-  63) =       2392.5  [cm-1]   --> A
     freq (  64-  64) =       2393.1  [cm-1]   --> A
     freq (  65-  65) =       2397.8  [cm-1]   --> A
     freq (  66-  66) =       2399.0  [cm-1]   --> A

     General routines

     Parallel routines

     INITIALIZATION:

     DYNAMICAL MATRIX:

                                        0.00s GPU  (  342877 calls)

                                        0.00s GPU  (   49434 calls)

      General routines

      Additional routines
                                        0.00s GPU  ( 5561750 calls)
                                        0.00s GPU  ( 5561750 calls)

   This run was terminated on:   1:23:47  23Jul2024

   JOB DONE.