     Program PWSCF v.7.3.1 starts on 11Jul2024 at 15:30:39

     Waiting for input...
     Reading input from standard input

     Current dimensions of program PWSCF are:
     Max number of different atomic species (ntypx) = 10
     Max number of k-points (npk) =  40000
     Max angular momentum in pseudopotentials (lmaxx) =  4

     R & G space division:  proc/nbgrp/npool/nimage =      24
     Subspace diagonalization in iterative solution of the eigenvalue problem:
     a serial algorithm will be used

     Using Slab Decomposition

     Title:
     volume variation

     bravais-lattice index     =            8
     lattice parameter (alat)  =      12.4702  a.u.
     unit-cell volume          =    1377.0263 (a.u.)^3
     number of atoms/cell      =           22
     number of atomic types    =            3
     number of electrons       =        48.00
     number of Kohn-Sham states=           24
     kinetic-energy cutoff     =     100.0000  Ry
     charge density cutoff     =     800.0000  Ry
     scf convergence threshold =      1.0E-10
     mixing beta               =       0.7000
     number of iterations used =            8  plain     mixing
     energy convergence thresh.=      1.0E-05
     force convergence thresh. =      1.0E-05
     press convergence thresh. =      5.0E-01
     Exchange-correlation= PBESOL
                           (   1   4  10   8   0   0   0)
     nstep                     =          100

     celldm(1)=  12.470228  celldm(2)=   1.025571  celldm(3)=   0.692394
     celldm(4)=   0.000000  celldm(5)=   0.000000  celldm(6)=   0.000000

     crystal axes: (cart. coord. in units of alat)
               a(1) = (   1.000000   0.000000   0.000000 )
               a(2) = (   0.000000   1.025571   0.000000 )
               a(3) = (   0.000000   0.000000   0.692394 )

     reciprocal axes: (cart. coord. in units 2 pi/alat)
               b(1) = (  1.000000  0.000000  0.000000 )
               b(2) = (  0.000000  0.975067  0.000000 )
               b(3) = (  0.000000  0.000000  1.444264 )

     PseudoPot. # 1 for B  read from file:
     /home/mehlhorn/pseudos/b_pbesol_v1.4.uspp.F.UPF
     MD5 check sum: 369b69bef2c3aeed4453bd8b804fd6a8
     Pseudo is Ultrasoft + core correction, Zval =  3.0
     Generated by new atomic code, or converted to UPF format
     Using radial grid of  781 points,  4 beta functions with:
                l(1) =   0
                l(2) =   0
                l(3) =   1
                l(4) =   1
     Q(r) pseudized with  8 coefficients,  rinner =    1.100   1.100   1.100

     PseudoPot. # 2 for Ba read from file:
     /home/mehlhorn/pseudos/Ba.nc.z_10.oncvpsp4.dojo.v4-sp.upf
     MD5 check sum: c10ed334bb677c0554edec7181ce9143
     Pseudo is Norm-conserving + core correction, Zval = 10.0
     Generated using ONCVPSP code by D. R. Hamann
     Using radial grid of 1938 points,  8 beta functions with:
                l(1) =   0
                l(2) =   0
                l(3) =   1
                l(4) =   1
                l(5) =   2
                l(6) =   2
                l(7) =   3
                l(8) =   3

     PseudoPot. # 3 for H  read from file:
     /home/mehlhorn/pseudos/H_ONCV_PBEsol-1.0.upf
     MD5 check sum: 398ef8f67c0a7342c05c87c5e19ea467
     Pseudo is Norm-conserving, Zval =  1.0
     Generated using ONCVPSP code by D. R. Hamann
     Using radial grid of 1180 points,  2 beta functions with:
                l(1) =   0
                l(2) =   0

     atomic species   valence    mass     pseudopotential
     B                 3.00    10.81100     B ( 1.00)
     Ba               10.00   137.32700     Ba( 1.00)
     H                 1.00     1.00794     H ( 1.00)

      4 Sym. Ops. (no inversion) found ( 2 have fractional translation)

   Cartesian axes

     site n.     atom                  positions (alat units)
         1        Ba     tau(   1) = (   0.5000000   0.5127855   0.3462657  )
         2        Ba     tau(   2) = (   0.0000000   0.0000000   0.6923255  )
         3        B      tau(   3) = (   0.6102570   0.2453190   0.0000455  )
         4        B      tau(   4) = (   0.3897430   0.7802519   0.0000455  )
         5        B      tau(   5) = (   0.1102570   0.2674665   0.3461516  )
         6        B      tau(   6) = (   0.8897430   0.7581045   0.3461516  )
         7        H      tau(   7) = (   0.4340973   0.2996264   0.0001599  )
         8        H      tau(   8) = (   0.5659027   0.7259445   0.0001599  )
         9        H      tau(   9) = (   0.9340973   0.2131590   0.3460372  )
        10        H      tau(  10) = (   0.0659027   0.8124119   0.3460372  )
        11        H      tau(  11) = (   0.7220603   0.3933629  -0.0000058  )
        12        H      tau(  12) = (   0.2779397   0.6322081  -0.0000058  )
        13        H      tau(  13) = (   0.2220603   0.1194226   0.3462029  )
        14        H      tau(  14) = (   0.7779397   0.9061483   0.3462029  )
        15        H      tau(  15) = (   0.6392499   0.1457279   0.5404125  )
        16        H      tau(  16) = (   0.3607501   0.8798430   0.5404125  )
        17        H      tau(  17) = (   0.1392499   0.3670576   0.4981787  )
        18        H      tau(  18) = (   0.8607501   0.6585133   0.4981787  )
        19        H      tau(  19) = (   0.3605328   0.8798946   0.1519977  )
        20        H      tau(  20) = (   0.6394672   0.1456763   0.1519977  )
        21        H      tau(  21) = (   0.8605328   0.6584617   0.1941994  )
        22        H      tau(  22) = (   0.1394672   0.3671092   0.1941994  )

     number of k points=    27
                       cart. coord. in units 2pi/alat
        k(    1) = (   0.0000000   0.0000000   0.0000000), wk =   0.0312500
        k(    2) = (   0.0000000   0.0000000   0.3610660), wk =   0.0625000
        k(    3) = (   0.0000000   0.0000000  -0.7221320), wk =   0.0312500
        k(    4) = (   0.0000000   0.2437667   0.0000000), wk =   0.0625000
        k(    5) = (   0.0000000   0.2437667   0.3610660), wk =   0.1250000
        k(    6) = (   0.0000000   0.2437667  -0.7221320), wk =   0.0625000
        k(    7) = (   0.0000000  -0.4875333   0.0000000), wk =   0.0312500
        k(    8) = (   0.0000000  -0.4875333   0.3610660), wk =   0.0625000
        k(    9) = (   0.0000000  -0.4875333  -0.7221320), wk =   0.0312500
        k(   10) = (   0.2500000   0.0000000   0.0000000), wk =   0.0625000
        k(   11) = (   0.2500000   0.0000000   0.3610660), wk =   0.1250000
        k(   12) = (   0.2500000   0.0000000  -0.7221320), wk =   0.0625000
        k(   13) = (   0.2500000   0.2437667   0.0000000), wk =   0.1250000
        k(   14) = (   0.2500000   0.2437667   0.3610660), wk =   0.2500000
        k(   15) = (   0.2500000   0.2437667  -0.7221320), wk =   0.1250000
        k(   16) = (   0.2500000  -0.4875333   0.0000000), wk =   0.0625000
        k(   17) = (   0.2500000  -0.4875333   0.3610660), wk =   0.1250000
        k(   18) = (   0.2500000  -0.4875333  -0.7221320), wk =   0.0625000
        k(   19) = (  -0.5000000   0.0000000   0.0000000), wk =   0.0312500
        k(   20) = (  -0.5000000   0.0000000   0.3610660), wk =   0.0625000
        k(   21) = (  -0.5000000   0.0000000  -0.7221320), wk =   0.0312500
        k(   22) = (  -0.5000000   0.2437667   0.0000000), wk =   0.0625000
        k(   23) = (  -0.5000000   0.2437667   0.3610660), wk =   0.1250000
        k(   24) = (  -0.5000000   0.2437667  -0.7221320), wk =   0.0625000
        k(   25) = (  -0.5000000  -0.4875333   0.0000000), wk =   0.0312500
        k(   26) = (  -0.5000000  -0.4875333   0.3610660), wk =   0.0625000
        k(   27) = (  -0.5000000  -0.4875333  -0.7221320), wk =   0.0312500

     Initial potential from superposition of free atoms

     starting charge      47.9682, renormalised to      48.0000
     Starting wfcs are   42 randomized atomic wfcs

     Self-consistent Calculation

     iteration #  1     ecut=   100.00 Ry     beta= 0.70
     Davidson diagonalization with overlap
     ethr =  1.00E-02,  avg # of iterations =  2.0

     total energy              =    -155.90189644 Ry
     estimated scf accuracy    <       2.17011427 Ry

[...]

     End of self-consistent calculation

          k = 0.0000 0.0000 0.0000 ( 23289 PWs)   bands (ev):

   -23.4163 -23.4044  -9.0743  -8.9637  -8.7190  -8.6696  -8.6436  -8.5641
    -5.8779  -4.8773  -4.0542  -3.9234  -1.5548  -0.6186  -0.4800  -0.1757
     0.2319   0.2703   0.3399   0.4316   0.6137   1.0519   1.0581   1.1025

[...]

          k =-0.5000 0.0000 0.0000 ( 23220 PWs)   bands (ev):

[...]

     highest occupied level (ev):     1.1192

!    total energy              =    -156.47101733 Ry
     estimated scf accuracy    <          4.4E-11 Ry

     The total energy is the sum of the following terms:
     one-electron contribution =     -19.50377247 Ry
     hartree contribution      =      24.82578060 Ry
     xc contribution           =     -49.32981261 Ry
     ewald contribution        =    -112.46321285 Ry

     convergence has been achieved in  11 iterations

     Forces acting on atoms (cartesian axes, Ry/au):

     atom    1 type  2   force =     0.00000000    0.00000000    0.00001537
     atom    2 type  2   force =     0.00000000    0.00000000   -0.00001537
     atom    3 type  1   force =    -0.00025109   -0.00120364   -0.00001108
     atom    4 type  1   force =     0.00025109    0.00120364   -0.00001108
     atom    5 type  1   force =    -0.00025109    0.00120364    0.00001108
     atom    6 type  1   force =     0.00025109   -0.00120364    0.00001108
     atom    7 type  3   force =    -0.00988903    0.00248485   -0.00001360
     atom    8 type  3   force =     0.00988903   -0.00248485   -0.00001360
     atom    9 type  3   force =    -0.00988903   -0.00248485    0.00001360
     atom   10 type  3   force =     0.00988903    0.00248485    0.00001360
     atom   11 type  3   force =     0.00653268    0.00788259    0.00000401
     atom   12 type  3   force =    -0.00653268   -0.00788259    0.00000401
     atom   13 type  3   force =     0.00653268   -0.00788259   -0.00000401
     atom   14 type  3   force =    -0.00653268    0.00788259   -0.00000401
     atom   15 type  3   force =     0.00123407   -0.00581673   -0.00882022
     atom   16 type  3   force =    -0.00123407    0.00581673   -0.00882022
     atom   17 type  3   force =     0.00123407    0.00581673    0.00882022
     atom   18 type  3   force =    -0.00123407   -0.00581673    0.00882022
     atom   19 type  3   force =    -0.00119511    0.00579747    0.00880770
     atom   20 type  3   force =     0.00119511   -0.00579747    0.00880770
     atom   21 type  3   force =    -0.00119511   -0.00579747   -0.00880770
     atom   22 type  3   force =     0.00119511    0.00579747   -0.00880770

     Total force =     0.041764     Total SCF correction =     0.000004

     Computing stress (Cartesian axis) and pressure

          total   stress  (Ry/bohr**3)                   (kbar)     P=       23.13
   0.00014598   0.00000000   0.00000000           21.47        0.00        0.00
   0.00000000   0.00014907   0.00000000            0.00       21.93        0.00
   0.00000000   0.00000000   0.00017674            0.00        0.00       26.00

     Volume is kept fixed: isostatic pressure set to zero

     BFGS Geometry Optimization
     Energy error            =      0.0E+00 Ry
     Gradient error          =      9.9E-03 Ry/Bohr
     Cell gradient error     =      2.9E+00 kbar

     number of scf cycles    =   1
     number of bfgs steps    =   0

     enthalpy           new  =    -156.4710173341 Ry

     new trust radius        =       0.0106373672 bohr
ibrav =      8
 celldm(1) =     12.46671060
 celldm(2) =      1.02565009
 celldm(3) =      0.69292684
Input lattice vectors:
     0.99971796     0.00000000     0.00000000
     0.00000000     1.02536082     0.00000000
     0.00000000     0.00000000     0.69273141
New lattice vectors in INITIAL alat:
     0.99971796     0.00000000     0.00000000
     0.00000000     1.02536082     0.00000000
     0.00000000     0.00000000     0.69273141
New lattice vectors in NEW alat (for information only):
     1.00000000     0.00000000     0.00000000
     0.00000000     1.02565009     0.00000000
     0.00000000     0.00000000     0.69292684
Discrepancy in bohr =     0.000000    0.000000    0.000000
     new conv_thr            =            1.0E-10 Ry

     new unit-cell volume =   1377.02633 a.u.^3 (   204.05425 Ang^3 )
     density =      2.71821 g/cm^3

CELL_PARAMETERS (alat= 12.47022768)
   0.999717961   0.000000000   0.000000000
   0.000000000   1.025360821   0.000000000
   0.000000000   0.000000000   0.692731412

ATOMIC_POSITIONS (crystal)
Ba               0.5000000000        0.5000000000        0.5001009454
Ba               0.0000000000        0.0000000000        0.9998990546
B                0.6102368812        0.2391082654        0.0000643731
B                0.3897631188        0.7608917346        0.0000643731
B                0.1102368812        0.2608917346        0.4999356269
B                0.8897631188        0.7391082654        0.4999356269
H                0.4333042407        0.2923500235        0.0002293586
H                0.5666957593        0.7076499765        0.0002293586
H                0.9333042407        0.2076499765        0.4997706414
H                0.0666957593        0.7923500235        0.4997706414
H                0.7225841300        0.3841713614       -0.0000079069
H                0.2774158700        0.6158286386       -0.0000079069
H                0.2225841300        0.1158286386        0.5000079069
H                0.7774158700        0.8841713614        0.5000079069
H                0.6393488860        0.1416395756        0.7794768826
H                0.3606511140        0.8583604244        0.7794768826
H                0.1393488860        0.3583604244        0.7205231174
H                0.8606511140        0.6416395756        0.7205231174
H                0.3604369937        0.8584092278        0.2205449296
H                0.6395630063        0.1415907722        0.2205449296
H                0.8604369937        0.6415907722        0.2794550704
H                0.1395630063        0.3584092278        0.2794550704

     Writing config-only to output data dir ./pwscf.save/ :
     XML data file
     NEW-OLD atomic charge density approx. for the potential

[...]

     Volume is kept fixed: isostatic pressure set to zero
     Energy error            =      1.4E-03 Ry
     Gradient error          =      6.0E-03 Ry/Bohr
     Cell gradient error     =      2.2E+00 kbar

[...]

     enthalpy           old  =    -156.4710173341 Ry
     enthalpy           new  =    -156.4724121439 Ry

     CASE: enthalpy          _new < enthalpy          _old

[...]

     Threshold (ethr) on eigenvalues was too large:
     Diagonalizing with lowered threshold

     Davidson diagonalization with overlap
     ethr =  7.98E-08,  avg # of iterations =  2.0

[...]

     WARNING: bfgs curvature condition failed, Theta= 0.983
     new trust radius        =       0.0024269846 bohr
ibrav =      8
 celldm(1) =     12.45529765
 celldm(2) =      1.02569120
 celldm(3) =      0.69480556
Input lattice vectors:
     0.99880275     0.00000000     0.00000000
     0.00000000     1.02446318     0.00000000
     0.00000000     0.00000000     0.69397370
New lattice vectors in INITIAL alat:
     0.99880275     0.00000000     0.00000000
     0.00000000     1.02446318     0.00000000
     0.00000000     0.00000000     0.69397370
New lattice vectors in NEW alat (for information only):
     1.00000000     0.00000000     0.00000000
     0.00000000     1.02569120     0.00000000
     0.00000000     0.00000000     0.69480556
Discrepancy in bohr =     0.000000    0.000000    0.000000
     new conv_thr            =            1.4E-12 Ry

[...]

     small trust_radius: resetting bfgs history

[...]

     Volume is kept fixed: isostatic pressure set to zero
     Energy error            =      2.8E-09 Ry
     Gradient error          =      1.2E-05 Ry/Bohr
     Cell gradient error     =      2.3E-03 kbar

     number of scf cycles    =  54
     number of bfgs steps    =  53

     enthalpy           old  =    -156.4736936988 Ry
     enthalpy           new  =    -156.4736937016 Ry

     CASE: enthalpy          _new < enthalpy          _old

     WARNING: bfgs curvature condition failed, Theta= 0.996
     Message from routine bfgs :: compute_trust_radius:
     history already reset at previous step: stopping
     small trust_radius: resetting bfgs history

     new trust radius        =       0.0000132682 bohr
ibrav =      8
 celldm(1) =     12.35941783
 celldm(2) =      1.03621612
 celldm(3) =      0.70387875
Input lattice vectors:
     0.99111405     0.00000000     0.00000000
     0.00000000     1.02700835     0.00000000
     0.00000000     0.00000000     0.69762412
New lattice vectors in INITIAL alat:
     0.99111405     0.00000000     0.00000000
     0.00000000     1.02700835     0.00000000
     0.00000000     0.00000000     0.69762412
New lattice vectors in NEW alat (for information only):
     1.00000000     0.00000000     0.00000000
     0.00000000     1.03621612     0.00000000
     0.00000000     0.00000000     0.70387875
Discrepancy in bohr =     0.000000    0.000000    0.000000
     new conv_thr            =            1.0E-12 Ry

     new unit-cell volume =   1377.02633 a.u.^3 (   204.05425 Ang^3 )
     density =      2.71821 g/cm^3

[...]

ATOMIC_POSITIONS (crystal)
Ba               0.5000000000        0.5000000000        0.5000012861
Ba               0.0000000000        0.0000000000        0.9999987139
B                0.6053314559        0.2360566620       -0.0000028382
B                0.3946685441        0.7639433380       -0.0000028382
B                0.1053314559        0.2639433380        0.5000028382
B                0.8946685441        0.7360566620        0.5000028382
H                0.4269074270        0.2932635156       -0.0000088206
H                0.5730925730        0.7067364844       -0.0000088206
H                0.9269074270        0.2067364844        0.5000088206
H                0.0730925730        0.7932635156        0.5000088206
H                0.7228104583        0.3794698421        0.0000201276
H                0.2771895417        0.6205301579        0.0000201276
H                0.2228104583        0.1205301579        0.4999798724
H                0.7771895417        0.8794698421        0.4999798724
H                0.6329963885        0.1374794971        0.7796763638
H                0.3670036115        0.8625205029        0.7796763638
H                0.1329963885        0.3625205029        0.7203236362
H                0.8670036115        0.6374794971        0.7203236362
H                0.3670224657        0.8625141628        0.2203253153
H                0.6329775343        0.1374858372        0.2203253153
H                0.8670224657        0.6374858372        0.2796746847
H                0.1329775343        0.3625141628        0.2796746847

     Writing config-only to output data dir ./pwscf.save/ :
     XML data file
     NEW-OLD atomic charge density approx. for the potential

     Self-consistent Calculation

[...]

     Threshold (ethr) on eigenvalues was too large:
     Diagonalizing with lowered threshold

     Davidson diagonalization with overlap
     ethr =  1.40E-13,  avg # of iterations =  4.0

[...]

     total energy              =    -156.47369370 Ry
     estimated scf accuracy    <          1.3E-11 Ry

     iteration #  3     ecut=   100.00 Ry     beta= 0.70
     Davidson diagonalization with overlap
     ethr =  1.00E-13,  avg # of iterations =  1.0

     End of self-consistent calculation

[...]

          k = 0.2522-0.4869-0.7167 ( 23284 PWs)   bands (ev):

[...]

          k =-0.5045-0.4869-0.7167 ( 23272 PWs)   bands (ev):

   -23.3999 -23.3999  -9.1676  -9.1676  -8.7987  -8.7987  -8.7121  -8.7121
    -4.6540  -4.6540  -4.0860  -4.0860  -1.3180  -1.3180  -0.5515  -0.5515
     0.5643   0.5643   0.6054   0.6054   0.7977   0.7977   1.0186   1.0186

     highest occupied level (ev):     1.2221

!    total energy              =    -156.47369370 Ry
     estimated scf accuracy    <          3.1E-13 Ry

     The total energy is the sum of the following terms:
     one-electron contribution =     -17.98528287 Ry
     hartree contribution      =      24.07106448 Ry
     xc contribution           =     -49.21162013 Ry
     ewald contribution        =    -113.34785518 Ry

     convergence has been achieved in   3 iterations

     Forces acting on atoms (cartesian axes, Ry/au):

     atom    1 type  2   force =     0.00000000    0.00000000   -0.00000588
     atom    2 type  2   force =     0.00000000    0.00000000    0.00000588
     atom    3 type  1   force =    -0.00000021    0.00000039    0.00000681
     atom    4 type  1   force =     0.00000021   -0.00000039    0.00000681
     atom    5 type  1   force =    -0.00000021   -0.00000039   -0.00000681
     atom    6 type  1   force =     0.00000021    0.00000039   -0.00000681
     atom    7 type  3   force =     0.00000239    0.00000069   -0.00000276
     atom    8 type  3   force =    -0.00000239   -0.00000069   -0.00000276
     atom    9 type  3   force =     0.00000239   -0.00000069    0.00000276
     atom   10 type  3   force =    -0.00000239    0.00000069    0.00000276
     atom   11 type  3   force =    -0.00000080   -0.00000277   -0.00001010
     atom   12 type  3   force =     0.00000080    0.00000277   -0.00001010
     atom   13 type  3   force =    -0.00000080    0.00000277    0.00001010
     atom   14 type  3   force =     0.00000080   -0.00000277    0.00001010
     atom   15 type  3   force =    -0.00000230    0.00000872    0.00000535
     atom   16 type  3   force =     0.00000230   -0.00000872    0.00000535
     atom   17 type  3   force =    -0.00000230   -0.00000872   -0.00000535
     atom   18 type  3   force =     0.00000230    0.00000872   -0.00000535
     atom   19 type  3   force =    -0.00000279    0.00000673    0.00000202
     atom   20 type  3   force =     0.00000279   -0.00000673    0.00000202
     atom   21 type  3   force =    -0.00000279   -0.00000673   -0.00000202
     atom   22 type  3   force =     0.00000279    0.00000673   -0.00000202

     Total force =     0.000038     Total SCF correction =     0.000000

     Computing stress (Cartesian axis) and pressure

          total   stress  (Ry/bohr**3)                   (kbar)     P=        7.16
   0.00004866   0.00000000   0.00000000            7.16        0.00        0.00
   0.00000000   0.00004865   0.00000000            0.00        7.16        0.00
   0.00000000   0.00000000   0.00004864            0.00        0.00        7.15

     Volume is kept fixed: isostatic pressure set to zero
     Message from routine bfgs:
     history already reset at previous step: exiting
     Energy error            =      1.9E-09 Ry
     Gradient error          =      1.0E-05 Ry/Bohr
     Cell gradient error     =      1.9E-03 kbar
ibrav =      8
 celldm(1) =     12.35941783
 celldm(2) =      1.03621612
 celldm(3) =      0.70387875
Input lattice vectors:
     0.99111405     0.00000000     0.00000000
     0.00000000     1.02700835     0.00000000
     0.00000000     0.00000000     0.69762412
New lattice vectors in INITIAL alat:
     0.99111405     0.00000000     0.00000000
     0.00000000     1.02700835     0.00000000
     0.00000000     0.00000000     0.69762412
New lattice vectors in NEW alat (for information only):
     1.00000000     0.00000000     0.00000000
     0.00000000     1.03621612     0.00000000
     0.00000000     0.00000000     0.70387875
Discrepancy in bohr =     0.000000    0.000000    0.000000

     bfgs failed after  55 scf cycles and  54 bfgs steps, convergence not achieved
     (criteria: energy <  1.0E-05 Ry, force <  1.0E-05 Ry/Bohr, cell <  5.0E-01 kbar)

     End of BFGS Geometry Optimization

     Final enthalpy           =    -156.4736937035 Ry

     File ./pwscf.bfgs deleted, as requested
Begin final coordinates
     new unit-cell volume =   1377.02633 a.u.^3 (   204.05425 Ang^3 )
     density =      2.71821 g/cm^3

CELL_PARAMETERS (alat= 12.47022768)
   0.991114047   0.000000000   0.000000000
   0.000000000   1.027008352   0.000000000
   0.000000000   0.000000000   0.697624121

ATOMIC_POSITIONS (crystal)
Ba               0.5000000000        0.5000000000        0.5000012861
Ba               0.0000000000        0.0000000000        0.9999987139
B                0.6053314559        0.2360566620       -0.0000028382
B                0.3946685441        0.7639433380       -0.0000028382
B                0.1053314559        0.2639433380        0.5000028382
B                0.8946685441        0.7360566620        0.5000028382
H                0.4269074270        0.2932635156       -0.0000088206
H                0.5730925730        0.7067364844       -0.0000088206
H                0.9269074270        0.2067364844        0.5000088206
H                0.0730925730        0.7932635156        0.5000088206
H                0.7228104583        0.3794698421        0.0000201276
H                0.2771895417        0.6205301579        0.0000201276
H                0.2228104583        0.1205301579        0.4999798724
H                0.7771895417        0.8794698421        0.4999798724
H                0.6329963885        0.1374794971        0.7796763638
H                0.3670036115        0.8625205029        0.7796763638
H                0.1329963885        0.3625205029        0.7203236362
H                0.8670036115        0.6374794971        0.7203236362
H                0.3670224657        0.8625141628        0.2203253153
H                0.6329775343        0.1374858372        0.2203253153
H                0.8670224657        0.6374858372        0.2796746847
H                0.1329775343        0.3625141628        0.2796746847
End final coordinates

     Writing config-only to output data dir ./pwscf.save/ :
     XML data file

     Writing all to output data dir ./pwscf.save/ :
     XML data file, charge density, pseudopotentials, collected wavefunctions

     General routines

     Parallel routines

   This run was terminated on:  17:44: 4  11Jul2024

   JOB DONE.