     Program PWSCF v.7.3.1 starts on 12Jul2024 at 12:17:15

     Waiting for input...
     Reading input from standard input

     Current dimensions of program PWSCF are:
     Max number of different atomic species (ntypx) = 10
     Max number of k-points (npk) =  40000
     Max angular momentum in pseudopotentials (lmaxx) =  4

     R & G space division:  proc/nbgrp/npool/nimage =      24
     Subspace diagonalization in iterative solution of the eigenvalue problem:
     a serial algorithm will be used

     Using Slab Decomposition

     Title:
     pre-ph

     bravais-lattice index     =            8
     lattice parameter (alat)  =      12.9772  a.u.
     unit-cell volume          =    1491.1840 (a.u.)^3
     number of atoms/cell      =           22
     number of atomic types    =            3
     number of electrons       =        48.00
     number of Kohn-Sham states=           24
     kinetic-energy cutoff     =     100.0000  Ry
     charge density cutoff     =     800.0000  Ry
     scf convergence threshold =      1.0E-10
     mixing beta               =       0.7000
     number of iterations used =            8  plain     mixing
     Exchange-correlation= PBESOL
                           (   1   4  10   8   0   0   0)

     celldm(1)=  12.977188  celldm(2)=   1.011547  celldm(3)=   0.674533
     celldm(4)=   0.000000  celldm(5)=   0.000000  celldm(6)=   0.000000

     crystal axes: (cart. coord. in units of alat)
               a(1) = (   1.000000   0.000000   0.000000 )
               a(2) = (   0.000000   1.011547   0.000000 )
               a(3) = (   0.000000   0.000000   0.674533 )

     reciprocal axes: (cart. coord. in units 2 pi/alat)
               b(1) = (  1.000000  0.000000  0.000000 )
               b(2) = (  0.000000  0.988585  0.000000 )
               b(3) = (  0.000000  0.000000  1.482507 )

     PseudoPot. # 1 for B  read from file:
     /home/mehlhorn/pseudos/b_pbesol_v1.4.uspp.F.UPF
     MD5 check sum: 369b69bef2c3aeed4453bd8b804fd6a8
     Pseudo is Ultrasoft + core correction, Zval =  3.0
     Generated by new atomic code, or converted to UPF format
     Using radial grid of  781 points,  4 beta functions with:
                l(1) =   0
                l(2) =   0
                l(3) =   1
                l(4) =   1
     Q(r) pseudized with  8 coefficients,  rinner =    1.100   1.100   1.100

     PseudoPot. # 2 for Ba read from file:
     /home/mehlhorn/pseudos/Ba.nc.z_10.oncvpsp4.dojo.v4-sp.upf
     MD5 check sum: c10ed334bb677c0554edec7181ce9143
     Pseudo is Norm-conserving + core correction, Zval = 10.0
     Generated using ONCVPSP code by D. R. Hamann
     Using radial grid of 1938 points,  8 beta functions with:
                l(1) =   0
                l(2) =   0
                l(3) =   1
                l(4) =   1
                l(5) =   2
                l(6) =   2
                l(7) =   3
                l(8) =   3

     PseudoPot. # 3 for H  read from file:
     /home/mehlhorn/pseudos/H_ONCV_PBEsol-1.0.upf
     MD5 check sum: 398ef8f67c0a7342c05c87c5e19ea467
     Pseudo is Norm-conserving, Zval =  1.0
     Generated using ONCVPSP code by D. R. Hamann
     Using radial grid of 1180 points,  2 beta functions with:
                l(1) =   0
                l(2) =   0

     atomic species   valence    mass     pseudopotential
     B                 3.00    10.81100     B ( 1.00)
     Ba               10.00   137.32700     Ba( 1.00)
     H                 1.00     1.00794     H ( 1.00)

      4 Sym. Ops. (no inversion) found ( 2 have fractional translation)

   Cartesian axes

     site n.     atom                  positions (alat units)
         1        Ba     tau(   1) = (   0.5000000   0.5057734   0.3372661  )
         2        Ba     tau(   2) = (   0.0000000   0.0000000   0.6745338  )
         3        B      tau(   3) = (   0.6178438   0.2480975   0.0000018  )
         4        B      tau(   4) = (   0.3821562   0.7634494   0.0000018  )
         5        B      tau(   5) = (   0.1178438   0.2576759   0.3372648  )
         6        B      tau(   6) = (   0.8821562   0.7538710   0.3372648  )
         7        H      tau(   7) = (   0.4440304   0.2927253  -0.0000144  )
         8        H      tau(   8) = (   0.5559696   0.7188216  -0.0000144  )
         9        H      tau(   9) = (   0.9440304   0.2130481   0.3372810  )
        10        H      tau(  10) = (   0.0559696   0.7984988   0.3372810  )
        11        H      tau(  11) = (   0.7194740   0.3970761   0.0000040  )
        12        H      tau(  12) = (   0.2805260   0.6144708   0.0000040  )
        13        H      tau(  13) = (   0.2194740   0.1086973   0.3372627  )
        14        H      tau(  14) = (   0.7805260   0.9028496   0.3372627  )
        15        H      tau(  15) = (   0.6506240   0.1527213   0.5265303  )
        16        H      tau(  16) = (   0.3493760   0.8588256   0.5265303  )
        17        H      tau(  17) = (   0.1506240   0.3530521   0.4852696  )
        18        H      tau(  18) = (   0.8493760   0.6584948   0.4852696  )
        19        H      tau(  19) = (   0.3493889   0.8588246   0.1480112  )
        20        H      tau(  20) = (   0.6506111   0.1527223   0.1480112  )
        21        H      tau(  21) = (   0.8493889   0.6584958   0.1892555  )
        22        H      tau(  22) = (   0.1506111   0.3530511   0.1892555  )

     number of k points=    27
                       cart. coord. in units 2pi/alat
        k(    1) = (   0.0000000   0.0000000   0.0000000), wk =   0.0160000
        k(    2) = (   0.0000000   0.0000000   0.2965013), wk =   0.0320000
        k(    3) = (   0.0000000   0.0000000   0.5930026), wk =   0.0320000
        k(    4) = (   0.0000000   0.1977170   0.0000000), wk =   0.0320000
        k(    5) = (   0.0000000   0.1977170   0.2965013), wk =   0.0640000
        k(    6) = (   0.0000000   0.1977170   0.5930026), wk =   0.0640000
        k(    7) = (   0.0000000   0.3954340   0.0000000), wk =   0.0320000
        k(    8) = (   0.0000000   0.3954340   0.2965013), wk =   0.0640000
        k(    9) = (   0.0000000   0.3954340   0.5930026), wk =   0.0640000
        k(   10) = (   0.2000000   0.0000000   0.0000000), wk =   0.0320000
        k(   11) = (   0.2000000   0.0000000   0.2965013), wk =   0.0640000
        k(   12) = (   0.2000000   0.0000000   0.5930026), wk =   0.0640000
        k(   13) = (   0.2000000   0.1977170   0.0000000), wk =   0.0640000
        k(   14) = (   0.2000000   0.1977170   0.2965013), wk =   0.1280000
        k(   15) = (   0.2000000   0.1977170   0.5930026), wk =   0.1280000
        k(   16) = (   0.2000000   0.3954340   0.0000000), wk =   0.0640000
        k(   17) = (   0.2000000   0.3954340   0.2965013), wk =   0.1280000
        k(   18) = (   0.2000000   0.3954340   0.5930026), wk =   0.1280000
        k(   19) = (   0.4000000   0.0000000   0.0000000), wk =   0.0320000
        k(   20) = (   0.4000000   0.0000000   0.2965013), wk =   0.0640000
        k(   21) = (   0.4000000   0.0000000   0.5930026), wk =   0.0640000
        k(   22) = (   0.4000000   0.1977170   0.0000000), wk =   0.0640000
        k(   23) = (   0.4000000   0.1977170   0.2965013), wk =   0.1280000
        k(   24) = (   0.4000000   0.1977170   0.5930026), wk =   0.1280000
        k(   25) = (   0.4000000   0.3954340   0.0000000), wk =   0.0640000
        k(   26) = (   0.4000000   0.3954340   0.2965013), wk =   0.1280000
        k(   27) = (   0.4000000   0.3954340   0.5930026), wk =   0.1280000

     Initial potential from superposition of free atoms

     starting charge      47.9682, renormalised to      48.0000
     Starting wfcs are   42 randomized atomic wfcs

     Self-consistent Calculation

     iteration #  1     ecut=   100.00 Ry     beta= 0.70
     Davidson diagonalization with overlap
     ethr =  1.00E-02,  avg # of iterations =  2.0

     total energy              =    -155.91827207 Ry
     estimated scf accuracy    <       2.12313767 Ry

[...]

     total energy              =    -156.47350814 Ry
     estimated scf accuracy    <          1.0E-10 Ry

     iteration # 11     ecut=   100.00 Ry     beta= 0.70
     Davidson diagonalization with overlap
     ethr =  2.11E-13,  avg # of iterations =  6.4

     End of self-consistent calculation

          k = 0.0000 0.0000 0.0000 ( 25179 PWs)   bands (ev):

   -24.1868 -24.1794  -9.7026  -9.6324  -9.4449  -9.4070  -9.3659  -9.3101
    -6.1971  -5.2984  -4.6853  -4.5729  -1.8945  -0.9702  -0.9499  -0.5920
    -0.3418  -0.2793  -0.1492  -0.1369   0.1387   0.4728   0.4768   0.5167

[...]

          k = 0.4000 0.3954 0.5930 ( 25183 PWs)   bands (ev):

   -24.1713 -24.1710  -9.8040  -9.7961  -9.5183  -9.5022  -9.4233  -9.4214
    -5.2249  -5.1602  -4.8522  -4.7846  -1.6811  -1.6491  -0.9998  -0.9827
    -0.2153  -0.1175   0.0133   0.0349   0.1753   0.1915   0.3629   0.3984

     highest occupied level (ev):     0.5167

!    total energy              =    -156.47350814 Ry
     estimated scf accuracy    <          1.3E-11 Ry

     The total energy is the sum of the following terms:
     one-electron contribution =     -26.32866154 Ry
     hartree contribution      =      27.06286157 Ry
     xc contribution           =     -49.08416736 Ry
     ewald contribution        =    -108.12354081 Ry

     convergence has been achieved in  11 iterations

     Writing all to output data dir ./pwscf.save/ :
     XML data file, charge density, pseudopotentials, collected wavefunctions

     General routines

     Parallel routines

   This run was terminated on:  12:21:23  12Jul2024

   JOB DONE.