     Program PHONON v.7.3.1 starts on 12Jul2024 at 12:21:23

     Waiting for input...
     Reading input from standard input

     Reading xml data from directory:

     ./pwscf.save/

     R & G space division:  proc/nbgrp/npool/nimage =      24
     Subspace diagonalization in iterative solution of the eigenvalue problem:
     a serial algorithm will be used

     IMPORTANT: XC functional enforced from input :
     Exchange-correlation= PBESOL
                           (   1   4  10   8   0   0   0)
     Any further DFT definition will be discarded
     Please, verify this is what you really want

     Using Slab Decomposition

     Reading collected, re-writing distributed wavefunctions in ./

     Dynamical matrices for ( 3, 3, 3)  uniform grid of q-points
     (   8 q-points):
       N         xq(1)         xq(2)         xq(3)
       1   0.000000000   0.000000000   0.000000000
       2   0.000000000   0.000000000   0.494168862
       3   0.000000000   0.329528306   0.000000000
       4   0.000000000   0.329528306   0.494168862
       5   0.333333333   0.000000000   0.000000000
       6   0.333333333   0.000000000   0.494168862
       7   0.333333333   0.329528306   0.000000000
       8   0.333333333   0.329528306   0.494168862

     Number and degeneracy of irreps per q-point
       N         xq(1)         xq(2)         xq(3)   N irreps
       1   0.000000000   0.000000000   0.000000000      65
        1   1   1   1   1   1   1   1   1   1   1   1   1   1   1   1   1   1
   1   1   1   1   1   1   1   1   1   1   1   1   1   1   1   1   1   1
   1   1   1   1   1   1   1   1   1   1   2   1   1   1   1   1   1   1
   1   1   1   1   1   1   1   1   1   1   1
       2   0.000000000   0.000000000   0.494168862      66
     No degeneracy
       3   0.000000000   0.329528306   0.000000000      66
     No degeneracy
       4   0.000000000   0.329528306   0.494168862      66
     No degeneracy
       5   0.333333333   0.000000000   0.000000000      66
     No degeneracy
       6   0.333333333   0.000000000   0.494168862      66
     No degeneracy
       7   0.333333333   0.329528306   0.000000000      66
     No degeneracy
       8   0.333333333   0.329528306   0.494168862      66
     No degeneracy

     Saving dvscf to file. Distribute only q points, not irreducible representations.

     Calculation of q =    0.0000000   0.0000000   0.0000000

     bravais-lattice index     =            8
     lattice parameter (alat)  =      12.9772  a.u.
     unit-cell volume          =    1491.1840 (a.u.)^3
     number of atoms/cell      =           22
     number of atomic types    =            3
     kinetic-energy cut-off    =     100.0000  Ry
     charge density cut-off    =     800.0000  Ry
     convergence threshold     =      1.0E-14
     beta                      =       0.7000
     number of iterations used =            4
     Exchange-correlation= PBESOL
                           (   1   4  10   8   0   0   0)

     celldm(1)=   12.97719  celldm(2)=    1.01155  celldm(3)=    0.67453
     celldm(4)=    0.00000  celldm(5)=    0.00000  celldm(6)=    0.00000

     crystal axes: (cart. coord. in units of alat)
               a(1) = (  1.0000  0.0000  0.0000 )
               a(2) = (  0.0000  1.0115  0.0000 )
               a(3) = (  0.0000  0.0000  0.6745 )

     reciprocal axes: (cart. coord. in units 2 pi/alat)
               b(1) = (  1.0000  0.0000  0.0000 )
               b(2) = (  0.0000  0.9886  0.0000 )
               b(3) = (  0.0000  0.0000  1.4825 )

     Atoms inside the unit cell:

     Cartesian axes

     site n.  atom      mass           positions (alat units)
        1  Ba    137.3270   tau(    1) = (    0.50000    0.50577    0.33727  )
        2  Ba    137.3270   tau(    2) = (    0.00000    0.00000    0.67453  )
        3  B      10.8110   tau(    3) = (    0.61784    0.24810    0.00000  )
        4  B      10.8110   tau(    4) = (    0.38216    0.76345    0.00000  )
        5  B      10.8110   tau(    5) = (    0.11784    0.25768    0.33726  )
        6  B      10.8110   tau(    6) = (    0.88216    0.75387    0.33726  )
        7  H       1.0079   tau(    7) = (    0.44403    0.29273   -0.00001  )
        8  H       1.0079   tau(    8) = (    0.55597    0.71882   -0.00001  )
        9  H       1.0079   tau(    9) = (    0.94403    0.21305    0.33728  )
       10  H       1.0079   tau(   10) = (    0.05597    0.79850    0.33728  )
       11  H       1.0079   tau(   11) = (    0.71947    0.39708    0.00000  )
       12  H       1.0079   tau(   12) = (    0.28053    0.61447    0.00000  )
       13  H       1.0079   tau(   13) = (    0.21947    0.10870    0.33726  )
       14  H       1.0079   tau(   14) = (    0.78053    0.90285    0.33726  )
       15  H       1.0079   tau(   15) = (    0.65062    0.15272    0.52653  )
       16  H       1.0079   tau(   16) = (    0.34938    0.85883    0.52653  )
       17  H       1.0079   tau(   17) = (    0.15062    0.35305    0.48527  )
       18  H       1.0079   tau(   18) = (    0.84938    0.65849    0.48527  )
       19  H       1.0079   tau(   19) = (    0.34939    0.85882    0.14801  )
       20  H       1.0079   tau(   20) = (    0.65061    0.15272    0.14801  )
       21  H       1.0079   tau(   21) = (    0.84939    0.65850    0.18926  )
       22  H       1.0079   tau(   22) = (    0.15061    0.35305    0.18926  )

     Computing dynamical matrix for
                    q = (   0.0000000   0.0000000   0.0000000 )

      5 Sym.Ops. (with q -> -q+G )

     G cutoff = 3412.6478  (  23737 G-vectors)     FFT grid: (120,120, 80)
     G cutoff = 1706.3239  (   8389 G-vectors)  smooth grid: ( 90, 90, 60)
     number of k points=    27

     PseudoPot. # 1 for B  read from file:
     /home/mehlhorn/pseudos/b_pbesol_v1.4.uspp.F.UPF
     MD5 check sum: 369b69bef2c3aeed4453bd8b804fd6a8
     Pseudo is Ultrasoft + core correction, Zval =  3.0
     Generated by new atomic code, or converted to UPF format
     Using radial grid of  781 points,  4 beta functions with:
                l(1) =   0
                l(2) =   0
                l(3) =   1
                l(4) =   1
     Q(r) pseudized with  8 coefficients,  rinner =    1.100   1.100   1.100

     PseudoPot. # 2 for Ba read from file:
     /home/mehlhorn/pseudos/Ba.nc.z_10.oncvpsp4.dojo.v4-sp.upf
     MD5 check sum: c10ed334bb677c0554edec7181ce9143
     Pseudo is Norm-conserving + core correction, Zval = 10.0
     Generated using ONCVPSP code by D. R. Hamann
     Using radial grid of 1938 points,  8 beta functions with:
                l(1) =   0
                l(2) =   0
                l(3) =   1
                l(4) =   1
                l(5) =   2
                l(6) =   2
                l(7) =   3
                l(8) =   3

     PseudoPot. # 3 for H  read from file:
     /home/mehlhorn/pseudos/H_ONCV_PBEsol-1.0.upf
     MD5 check sum: 398ef8f67c0a7342c05c87c5e19ea467
     Pseudo is Norm-conserving, Zval =  1.0
     Generated using ONCVPSP code by D. R. Hamann
     Using radial grid of 1180 points,  2 beta functions with:
                l(1) =   0
                l(2) =   0

     Mode symmetry, D_2  (222)  point group:

     Electric field:
     Dielectric constant
     Born effective charges in two ways

     Atomic displacements:
     There are   65 irreducible representations

     Representation     1      1 modes -  To be done

[...]

     Alpha used in Ewald sum =   2.8000

     Electric Fields Calculation

      thresh= 1.000E-02 alpha_mix =  0.700 |ddv_scf|^2 =  6.130E-09

[...]

     End of electric fields calculation

          Dielectric constant in cartesian axis

          (       3.009232511       0.000000000       0.000000000 )
          (       0.000000000       3.061262937       0.000000000 )
          (       0.000000000       0.000000000       3.223080431 )

          Effective charges (d Force / dE) in cartesian axis without acoustic sum rule applied (asr)

           atom    1  Ba    Mean Z*:        2.63269
      Ex  (        2.45482       -0.06029        0.00000 )
      Ey  (        0.27617        2.47579        0.00000 )
      Ez  (        0.00000        0.00000        2.96746 )
           atom    2  Ba    Mean Z*:        2.63269
      Ex  (        2.45482        0.06029        0.00000 )
      Ey  (       -0.27617        2.47579        0.00000 )
      Ez  (        0.00000        0.00000        2.96746 )
           atom    3  B     Mean Z*:       -0.11842
      Ex  (       -0.13914        0.02548       -0.00000 )
      Ey  (        0.17220       -0.02064        0.00001 )
      Ez  (        0.00003       -0.00001       -0.19550 )
           atom    4  B     Mean Z*:       -0.11842
      Ex  (       -0.13914        0.02548        0.00000 )
      Ey  (        0.17220       -0.02064       -0.00001 )
      Ez  (       -0.00003        0.00001       -0.19550 )
           atom    5  B     Mean Z*:       -0.11842
      Ex  (       -0.13914       -0.02548        0.00000 )
      Ey  (       -0.17220       -0.02064        0.00001 )
      Ez  (       -0.00003       -0.00001       -0.19550 )
           atom    6  B     Mean Z*:       -0.11842
      Ex  (       -0.13914       -0.02548       -0.00000 )
      Ey  (       -0.17220       -0.02064       -0.00001 )
      Ez  (        0.00003        0.00001       -0.19550 )
           atom    7  H     Mean Z*:       -0.31060
      Ex  (       -0.43919        0.13919       -0.00003 )
      Ey  (        0.14402       -0.24192        0.00003 )
      Ez  (       -0.00003        0.00003       -0.25069 )
           atom    8  H     Mean Z*:       -0.31060
      Ex  (       -0.43919        0.13919        0.00003 )
      Ey  (        0.14402       -0.24192       -0.00003 )
      Ez  (        0.00003       -0.00003       -0.25069 )
           atom    9  H     Mean Z*:       -0.31060
      Ex  (       -0.43919       -0.13919        0.00003 )
      Ey  (       -0.14402       -0.24192        0.00003 )
      Ez  (        0.00003        0.00003       -0.25069 )
           atom   10  H     Mean Z*:       -0.31060
      Ex  (       -0.43919       -0.13919       -0.00003 )
      Ey  (       -0.14402       -0.24192       -0.00003 )
      Ez  (       -0.00003       -0.00003       -0.25069 )
           atom   11  H     Mean Z*:       -0.30961
      Ex  (       -0.24365       -0.02733       -0.00000 )
      Ey  (       -0.10830       -0.43772       -0.00000 )
      Ez  (       -0.00001       -0.00001       -0.24746 )
           atom   12  H     Mean Z*:       -0.30961
      Ex  (       -0.24365       -0.02733        0.00000 )
      Ey  (       -0.10830       -0.43772        0.00000 )
      Ez  (        0.00001        0.00001       -0.24746 )
           atom   13  H     Mean Z*:       -0.30961
      Ex  (       -0.24365        0.02733        0.00000 )
      Ey  (        0.10830       -0.43772       -0.00000 )
      Ez  (        0.00001       -0.00001       -0.24746 )
           atom   14  H     Mean Z*:       -0.30961
      Ex  (       -0.24365        0.02733       -0.00000 )
      Ey  (        0.10830       -0.43772        0.00000 )
      Ez  (       -0.00001        0.00001       -0.24746 )
           atom   15  H     Mean Z*:       -0.28860
[...]

[...]

     atomic species   valence    mass     pseudopotential
     B                 3.00    10.81100     B ( 1.00)
     Ba               10.00   137.32700     Ba( 1.00)
     H                 1.00     1.00794     H ( 1.00)

      4 Sym. Ops. (no inversion) found

[...]

     site n.     atom                  positions (alat units)
         1        Ba     tau(   1) = (   0.5000000   0.5057734   0.3372661  )
         2        Ba     tau(   2) = (   0.0000000   0.0000000   0.6745338  )
         3        B      tau(   3) = (   0.6178438   0.2480975   0.0000018  )
         4        B      tau(   4) = (   0.3821562   0.7634494   0.0000018  )
         5        B      tau(   5) = (   0.1178438   0.2576759   0.3372648  )
         6        B      tau(   6) = (   0.8821562   0.7538710   0.3372648  )
         7        H      tau(   7) = (   0.4440304   0.2927253  -0.0000144  )
         8        H      tau(   8) = (   0.5559696   0.7188216  -0.0000144  )
         9        H      tau(   9) = (   0.9440304   0.2130481   0.3372810  )
        10        H      tau(  10) = (   0.0559696   0.7984988   0.3372810  )
        11        H      tau(  11) = (   0.7194740   0.3970761   0.0000040  )
        12        H      tau(  12) = (   0.2805260   0.6144708   0.0000040  )
        13        H      tau(  13) = (   0.2194740   0.1086973   0.3372627  )
        14        H      tau(  14) = (   0.7805260   0.9028496   0.3372627  )
        15        H      tau(  15) = (   0.6506240   0.1527213   0.5265303  )
        16        H      tau(  16) = (   0.3493760   0.8588256   0.5265303  )
        17        H      tau(  17) = (   0.1506240   0.3530521   0.4852696  )
        18        H      tau(  18) = (   0.8493760   0.6584948   0.4852696  )
        19        H      tau(  19) = (   0.3493889   0.8588246   0.1480112  )
        20        H      tau(  20) = (   0.6506111   0.1527223   0.1480112  )
        21        H      tau(  21) = (   0.8493889   0.6584958   0.1892555  )
        22        H      tau(  22) = (   0.1506111   0.3530511   0.1892555  )

     number of k points=   250

     Number of k-points >= 100: set verbosity='high' to print them.

     The potential is recalculated from file :
     ./_ph0/pwscf.q_8/pwscf.save/charge-density

     Starting wfcs are   42 atomic wfcs

     Band Structure Calculation
     Davidson diagonalization with overlap

     ethr =  2.08E-11,  avg # of iterations = 21.8

     End of band structure calculation

     Number of k-points >= 100: set verbosity='high' to print the bands.

     highest occupied level (ev):     0.5167

     Writing config to output data dir ./_ph0/pwscf.q_8/pwscf.save/ :
     XML data file

     bravais-lattice index     =            8
     lattice parameter (alat)  =      12.9772  a.u.
     unit-cell volume          =    1491.1840 (a.u.)^3
     number of atoms/cell      =           22
     number of atomic types    =            3
     kinetic-energy cut-off    =     100.0000  Ry
     charge density cut-off    =     800.0000  Ry
     convergence threshold     =      1.0E-14
     beta                      =       0.7000
     number of iterations used =            4
     Exchange-correlation= PBESOL
                           (   1   4  10   8   0   0   0)

     celldm(1)=   12.97719  celldm(2)=    1.01155  celldm(3)=    0.67453
     celldm(4)=    0.00000  celldm(5)=    0.00000  celldm(6)=    0.00000

     crystal axes: (cart. coord. in units of alat)
               a(1) = (  1.0000  0.0000  0.0000 )
               a(2) = (  0.0000  1.0115  0.0000 )
               a(3) = (  0.0000  0.0000  0.6745 )

     reciprocal axes: (cart. coord. in units 2 pi/alat)
               b(1) = (  1.0000  0.0000  0.0000 )
               b(2) = (  0.0000  0.9886  0.0000 )
               b(3) = (  0.0000  0.0000  1.4825 )

     Atoms inside the unit cell:

     Cartesian axes

     site n.  atom      mass           positions (alat units)
        1  Ba    137.3270   tau(    1) = (    0.50000    0.50577    0.33727  )
        2  Ba    137.3270   tau(    2) = (    0.00000    0.00000    0.67453  )
        3  B      10.8110   tau(    3) = (    0.61784    0.24810    0.00000  )
        4  B      10.8110   tau(    4) = (    0.38216    0.76345    0.00000  )
        5  B      10.8110   tau(    5) = (    0.11784    0.25768    0.33726  )
        6  B      10.8110   tau(    6) = (    0.88216    0.75387    0.33726  )
        7  H       1.0079   tau(    7) = (    0.44403    0.29273   -0.00001  )
        8  H       1.0079   tau(    8) = (    0.55597    0.71882   -0.00001  )
        9  H       1.0079   tau(    9) = (    0.94403    0.21305    0.33728  )
       10  H       1.0079   tau(   10) = (    0.05597    0.79850    0.33728  )
       11  H       1.0079   tau(   11) = (    0.71947    0.39708    0.00000  )
       12  H       1.0079   tau(   12) = (    0.28053    0.61447    0.00000  )
       13  H       1.0079   tau(   13) = (    0.21947    0.10870    0.33726  )
       14  H       1.0079   tau(   14) = (    0.78053    0.90285    0.33726  )
       15  H       1.0079   tau(   15) = (    0.65062    0.15272    0.52653  )
       16  H       1.0079   tau(   16) = (    0.34938    0.85883    0.52653  )
       17  H       1.0079   tau(   17) = (    0.15062    0.35305    0.48527  )
       18  H       1.0079   tau(   18) = (    0.84938    0.65849    0.48527  )
       19  H       1.0079   tau(   19) = (    0.34939    0.85882    0.14801  )
       20  H       1.0079   tau(   20) = (    0.65061    0.15272    0.14801  )
       21  H       1.0079   tau(   21) = (    0.84939    0.65850    0.18926  )
       22  H       1.0079   tau(   22) = (    0.15061    0.35305    0.18926  )

     Computing dynamical matrix for
                    q = (   0.3333333   0.3295283   0.4941689 )

     No symmetry!

     G cutoff = 3412.6478  (  23737 G-vectors)     FFT grid: (120,120, 80)
     G cutoff = 1706.3239  (   8389 G-vectors)  smooth grid: ( 90, 90, 60)
     number of k points=   250

     PseudoPot. # 1 for B  read from file:
     /home/mehlhorn/pseudos/b_pbesol_v1.4.uspp.F.UPF
     MD5 check sum: 369b69bef2c3aeed4453bd8b804fd6a8
     Pseudo is Ultrasoft + core correction, Zval =  3.0
     Generated by new atomic code, or converted to UPF format
     Using radial grid of  781 points,  4 beta functions with:
                l(1) =   0
                l(2) =   0
                l(3) =   1
                l(4) =   1
     Q(r) pseudized with  8 coefficients,  rinner =    1.100   1.100   1.100

     PseudoPot. # 2 for Ba read from file:
     /home/mehlhorn/pseudos/Ba.nc.z_10.oncvpsp4.dojo.v4-sp.upf
     MD5 check sum: c10ed334bb677c0554edec7181ce9143
     Pseudo is Norm-conserving + core correction, Zval = 10.0
     Generated using ONCVPSP code by D. R. Hamann
     Using radial grid of 1938 points,  8 beta functions with:
                l(1) =   0
                l(2) =   0
                l(3) =   1
                l(4) =   1
                l(5) =   2
                l(6) =   2
                l(7) =   3
                l(8) =   3

     PseudoPot. # 3 for H  read from file:
     /home/mehlhorn/pseudos/H_ONCV_PBEsol-1.0.upf
     MD5 check sum: 398ef8f67c0a7342c05c87c5e19ea467
     Pseudo is Norm-conserving, Zval =  1.0
     Generated using ONCVPSP code by D. R. Hamann
     Using radial grid of 1180 points,  2 beta functions with:
                l(1) =   0
                l(2) =   0

[...]

     Atomic displacements:
     There are   66 irreducible representations

[...]

     Representation    66      1 modes -  To be done

     Alpha used in Ewald sum =   2.8000

[...]

     Representation #  66 mode #  66

     Self-consistent Calculation

[...]

      thresh= 1.057E-08 alpha_mix =  0.700 |ddv_scf|^2 =  9.114E-16

     End of self-consistent calculation

     Convergence has been achieved

     Number of q in the star =    4
     List of q in the star:
          1   0.333333333   0.329528306   0.494168862
          2   0.333333333  -0.329528306  -0.494168862
          3  -0.333333333   0.329528306  -0.494168862
          4  -0.333333333  -0.329528306   0.494168862
     In addition there is the -q list:
          1  -0.333333333  -0.329528306  -0.494168862
          2  -0.333333333   0.329528306   0.494168862
          3   0.333333333  -0.329528306   0.494168862
          4   0.333333333   0.329528306  -0.494168862

     Diagonalizing the dynamical matrix

     q = (    0.333333333   0.329528306   0.494168862 )

     freq (    1) =       1.262636 [THz] =      42.117008 [cm-1]
     freq (    2) =       1.284828 [THz] =      42.857235 [cm-1]
     freq (    3) =       1.557668 [THz] =      51.958216 [cm-1]
     freq (    4) =       1.792841 [THz] =      59.802732 [cm-1]
     freq (    5) =       2.865151 [THz] =      95.571155 [cm-1]
     freq (    6) =       2.947664 [THz] =      98.323496 [cm-1]
     freq (    7) =       4.622033 [THz] =     154.174421 [cm-1]
     freq (    8) =       4.713790 [THz] =     157.235095 [cm-1]
     freq (    9) =       5.188448 [THz] =     173.067988 [cm-1]
     freq (   10) =       5.562749 [THz] =     185.553321 [cm-1]
     freq (   11) =       5.955745 [THz] =     198.662272 [cm-1]
     freq (   12) =       6.068786 [THz] =     202.432895 [cm-1]
     freq (   13) =       6.368903 [THz] =     212.443725 [cm-1]
     freq (   14) =       6.643236 [THz] =     221.594503 [cm-1]
     freq (   15) =       7.030280 [THz] =     234.504900 [cm-1]
     freq (   16) =       7.153397 [THz] =     238.611646 [cm-1]
     freq (   17) =       8.052148 [THz] =     268.590757 [cm-1]
     freq (   18) =       8.223022 [THz] =     274.290499 [cm-1]
     freq (   19) =       8.329550 [THz] =     277.843875 [cm-1]
     freq (   20) =       8.385096 [THz] =     279.696695 [cm-1]
     freq (   21) =       8.773948 [THz] =     292.667393 [cm-1]
     freq (   22) =       8.871154 [THz] =     295.909837 [cm-1]
     freq (   23) =       9.062790 [THz] =     302.302145 [cm-1]
     freq (   24) =       9.378546 [THz] =     312.834619 [cm-1]
     freq (   25) =       9.766039 [THz] =     325.760008 [cm-1]
     freq (   26) =       9.940065 [THz] =     331.564883 [cm-1]
     freq (   27) =      12.517259 [THz] =     417.530832 [cm-1]
     freq (   28) =      12.576669 [THz] =     419.512519 [cm-1]
     freq (   29) =      12.655119 [THz] =     422.129319 [cm-1]
     freq (   30) =      12.737676 [THz] =     424.883140 [cm-1]
     freq (   31) =      30.713980 [THz] =    1024.508079 [cm-1]
     freq (   32) =      30.719230 [THz] =    1024.683228 [cm-1]
     freq (   33) =      30.883425 [THz] =    1030.160160 [cm-1]
     freq (   34) =      30.906956 [THz] =    1030.945073 [cm-1]
     freq (   35) =      31.785484 [THz] =    1060.249614 [cm-1]
     freq (   36) =      31.804909 [THz] =    1060.897586 [cm-1]
     freq (   37) =      31.851130 [THz] =    1062.439335 [cm-1]
     freq (   38) =      31.912067 [THz] =    1064.471983 [cm-1]
     freq (   39) =      32.246221 [THz] =    1075.618150 [cm-1]
     freq (   40) =      32.279069 [THz] =    1076.713852 [cm-1]
     freq (   41) =      32.342635 [THz] =    1078.834179 [cm-1]
     freq (   42) =      32.409730 [THz] =    1081.072243 [cm-1]
     freq (   43) =      35.849603 [THz] =    1195.814046 [cm-1]
     freq (   44) =      35.883561 [THz] =    1196.946749 [cm-1]
     freq (   45) =      35.963770 [THz] =    1199.622254 [cm-1]
     freq (   46) =      35.999342 [THz] =    1200.808787 [cm-1]
     freq (   47) =      36.085325 [THz] =    1203.676870 [cm-1]
     freq (   48) =      36.095770 [THz] =    1204.025280 [cm-1]
     freq (   49) =      36.159491 [THz] =    1206.150795 [cm-1]
     freq (   50) =      36.177692 [THz] =    1206.757924 [cm-1]
     freq (   51) =      68.237665 [THz] =    2276.163501 [cm-1]
     freq (   52) =      68.252470 [THz] =    2276.657355 [cm-1]
     freq (   53) =      68.276467 [THz] =    2277.457778 [cm-1]
     freq (   54) =      68.312729 [THz] =    2278.667350 [cm-1]
     freq (   55) =      70.059927 [THz] =    2336.947616 [cm-1]
     freq (   56) =      70.071409 [THz] =    2337.330624 [cm-1]
     freq (   57) =      70.216145 [THz] =    2342.158494 [cm-1]
     freq (   58) =      70.219262 [THz] =    2342.262458 [cm-1]
     freq (   59) =      70.706407 [THz] =    2358.511871 [cm-1]
     freq (   60) =      70.715046 [THz] =    2358.800046 [cm-1]
     freq (   61) =      70.807733 [THz] =    2361.891754 [cm-1]
     freq (   62) =      70.839569 [THz] =    2362.953684 [cm-1]
     freq (   63) =      71.354089 [THz] =    2380.116226 [cm-1]
     freq (   64) =      71.369678 [THz] =    2380.636212 [cm-1]
     freq (   65) =      71.433871 [THz] =    2382.777440 [cm-1]
     freq (   66) =      71.477220 [THz] =    2384.223427 [cm-1]

     Mode symmetry, C_1 (1)     point group:

     freq (   1-   1) =         42.1  [cm-1]   --> A
     freq (   2-   2) =         42.9  [cm-1]   --> A
     freq (   3-   3) =         52.0  [cm-1]   --> A
     freq (   4-   4) =         59.8  [cm-1]   --> A
     freq (   5-   5) =         95.6  [cm-1]   --> A
     freq (   6-   6) =         98.3  [cm-1]   --> A
     freq (   7-   7) =        154.2  [cm-1]   --> A
     freq (   8-   8) =        157.2  [cm-1]   --> A
     freq (   9-   9) =        173.1  [cm-1]   --> A
     freq (  10-  10) =        185.6  [cm-1]   --> A
     freq (  11-  11) =        198.7  [cm-1]   --> A
     freq (  12-  12) =        202.4  [cm-1]   --> A
     freq (  13-  13) =        212.4  [cm-1]   --> A
     freq (  14-  14) =        221.6  [cm-1]   --> A
     freq (  15-  15) =        234.5  [cm-1]   --> A
     freq (  16-  16) =        238.6  [cm-1]   --> A
     freq (  17-  17) =        268.6  [cm-1]   --> A
     freq (  18-  18) =        274.3  [cm-1]   --> A
     freq (  19-  19) =        277.8  [cm-1]   --> A
     freq (  20-  20) =        279.7  [cm-1]   --> A
     freq (  21-  21) =        292.7  [cm-1]   --> A
     freq (  22-  22) =        295.9  [cm-1]   --> A
     freq (  23-  23) =        302.3  [cm-1]   --> A
     freq (  24-  24) =        312.8  [cm-1]   --> A
     freq (  25-  25) =        325.8  [cm-1]   --> A
     freq (  26-  26) =        331.6  [cm-1]   --> A
     freq (  27-  27) =        417.5  [cm-1]   --> A
     freq (  28-  28) =        419.5  [cm-1]   --> A
     freq (  29-  29) =        422.1  [cm-1]   --> A
     freq (  30-  30) =        424.9  [cm-1]   --> A
     freq (  31-  31) =       1024.5  [cm-1]   --> A
     freq (  32-  32) =       1024.7  [cm-1]   --> A
     freq (  33-  33) =       1030.2  [cm-1]   --> A
     freq (  34-  34) =       1030.9  [cm-1]   --> A
     freq (  35-  35) =       1060.2  [cm-1]   --> A
     freq (  36-  36) =       1060.9  [cm-1]   --> A
     freq (  37-  37) =       1062.4  [cm-1]   --> A
     freq (  38-  38) =       1064.5  [cm-1]   --> A
     freq (  39-  39) =       1075.6  [cm-1]   --> A
     freq (  40-  40) =       1076.7  [cm-1]   --> A
     freq (  41-  41) =       1078.8  [cm-1]   --> A
     freq (  42-  42) =       1081.1  [cm-1]   --> A
     freq (  43-  43) =       1195.8  [cm-1]   --> A
     freq (  44-  44) =       1196.9  [cm-1]   --> A
     freq (  45-  45) =       1199.6  [cm-1]   --> A
     freq (  46-  46) =       1200.8  [cm-1]   --> A
     freq (  47-  47) =       1203.7  [cm-1]   --> A
     freq (  48-  48) =       1204.0  [cm-1]   --> A
     freq (  49-  49) =       1206.2  [cm-1]   --> A
     freq (  50-  50) =       1206.8  [cm-1]   --> A
     freq (  51-  51) =       2276.2  [cm-1]   --> A
     freq (  52-  52) =       2276.7  [cm-1]   --> A
     freq (  53-  53) =       2277.5  [cm-1]   --> A
     freq (  54-  54) =       2278.7  [cm-1]   --> A
     freq (  55-  55) =       2336.9  [cm-1]   --> A
     freq (  56-  56) =       2337.3  [cm-1]   --> A
     freq (  57-  57) =       2342.2  [cm-1]   --> A
     freq (  58-  58) =       2342.3  [cm-1]   --> A
     freq (  59-  59) =       2358.5  [cm-1]   --> A
     freq (  60-  60) =       2358.8  [cm-1]   --> A
     freq (  61-  61) =       2361.9  [cm-1]   --> A
     freq (  62-  62) =       2363.0  [cm-1]   --> A
     freq (  63-  63) =       2380.1  [cm-1]   --> A
     freq (  64-  64) =       2380.6  [cm-1]   --> A
     freq (  65-  65) =       2382.8  [cm-1]   --> A
     freq (  66-  66) =       2384.2  [cm-1]   --> A

     General routines

     Parallel routines

     INITIALIZATION:

     DYNAMICAL MATRIX:

                                        0.00s GPU  (  338201 calls)

                                        0.00s GPU  (   49434 calls)

      General routines

      Additional routines
                                        0.00s GPU  ( 5545701 calls)
                                        0.00s GPU  ( 5545701 calls)

   This run was terminated on:  10: 1: 7  24Jul2024

   JOB DONE.