     Program PWSCF v.7.3.1 starts on 12Jul2024 at 14:14: 7

     Waiting for input...
     Reading input from standard input

     Current dimensions of program PWSCF are:
     Max number of different atomic species (ntypx) = 10
     Max number of k-points (npk) =  40000
     Max angular momentum in pseudopotentials (lmaxx) =  4

     R & G space division:  proc/nbgrp/npool/nimage =      12
     Subspace diagonalization in iterative solution of the eigenvalue problem:
     a serial algorithm will be used

     Using Slab Decomposition

     Title:
     volume variation

     bravais-lattice index     =            8
     lattice parameter (alat)  =      12.6192  a.u.
     unit-cell volume          =    1426.9703 (a.u.)^3
     number of atoms/cell      =           22
     number of atomic types    =            3
     number of electrons       =        48.00
     number of Kohn-Sham states=           24
     kinetic-energy cutoff     =     100.0000  Ry
     charge density cutoff     =     800.0000  Ry
     scf convergence threshold =      1.0E-10
     mixing beta               =       0.7000
     number of iterations used =            8  plain     mixing
     energy convergence thresh.=      1.0E-05
     force convergence thresh. =      1.0E-05
     press convergence thresh. =      5.0E-01
     Exchange-correlation= PBESOL
                           (   1   4  10   8   0   0   0)
     nstep                     =          300

     celldm(1)=  12.619204  celldm(2)=   1.025571  celldm(3)=   0.692394
     celldm(4)=   0.000000  celldm(5)=   0.000000  celldm(6)=   0.000000

     crystal axes: (cart. coord. in units of alat)
               a(1) = (   1.000000   0.000000   0.000000 )
               a(2) = (   0.000000   1.025571   0.000000 )
               a(3) = (   0.000000   0.000000   0.692394 )

     reciprocal axes: (cart. coord. in units 2 pi/alat)
               b(1) = (  1.000000  0.000000  0.000000 )
               b(2) = (  0.000000  0.975067  0.000000 )
               b(3) = (  0.000000  0.000000  1.444264 )

     PseudoPot. # 1 for B  read from file:
     /home/mehlhorn/pseudos/b_pbesol_v1.4.uspp.F.UPF
     MD5 check sum: 369b69bef2c3aeed4453bd8b804fd6a8
     Pseudo is Ultrasoft + core correction, Zval =  3.0
     Generated by new atomic code, or converted to UPF format
     Using radial grid of  781 points,  4 beta functions with:
                l(1) =   0
                l(2) =   0
                l(3) =   1
                l(4) =   1
     Q(r) pseudized with  8 coefficients,  rinner =    1.100   1.100   1.100

     PseudoPot. # 2 for Ba read from file:
     /home/mehlhorn/pseudos/Ba.nc.z_10.oncvpsp4.dojo.v4-sp.upf
     MD5 check sum: c10ed334bb677c0554edec7181ce9143
     Pseudo is Norm-conserving + core correction, Zval = 10.0
     Generated using ONCVPSP code by D. R. Hamann
     Using radial grid of 1938 points,  8 beta functions with:
                l(1) =   0
                l(2) =   0
                l(3) =   1
                l(4) =   1
                l(5) =   2
                l(6) =   2
                l(7) =   3
                l(8) =   3

     PseudoPot. # 3 for H  read from file:
     /home/mehlhorn/pseudos/H_ONCV_PBEsol-1.0.upf
     MD5 check sum: 398ef8f67c0a7342c05c87c5e19ea467
     Pseudo is Norm-conserving, Zval =  1.0
     Generated using ONCVPSP code by D. R. Hamann
     Using radial grid of 1180 points,  2 beta functions with:
                l(1) =   0
                l(2) =   0

     atomic species   valence    mass     pseudopotential
     B                 3.00    10.81100     B ( 1.00)
     Ba               10.00   137.32700     Ba( 1.00)
     H                 1.00     1.00794     H ( 1.00)

      4 Sym. Ops. (no inversion) found ( 2 have fractional translation)

   Cartesian axes

     site n.     atom                  positions (alat units)
         1        Ba     tau(   1) = (   0.5000000   0.5127855   0.3462657  )
         2        Ba     tau(   2) = (   0.0000000   0.0000000   0.6923255  )
         3        B      tau(   3) = (   0.6102570   0.2453190   0.0000455  )
         4        B      tau(   4) = (   0.3897430   0.7802519   0.0000455  )
         5        B      tau(   5) = (   0.1102570   0.2674665   0.3461516  )
         6        B      tau(   6) = (   0.8897430   0.7581045   0.3461516  )
         7        H      tau(   7) = (   0.4340973   0.2996264   0.0001599  )
         8        H      tau(   8) = (   0.5659027   0.7259445   0.0001599  )
         9        H      tau(   9) = (   0.9340973   0.2131590   0.3460372  )
        10        H      tau(  10) = (   0.0659027   0.8124119   0.3460372  )
        11        H      tau(  11) = (   0.7220603   0.3933629  -0.0000058  )
        12        H      tau(  12) = (   0.2779397   0.6322081  -0.0000058  )
        13        H      tau(  13) = (   0.2220603   0.1194226   0.3462029  )
        14        H      tau(  14) = (   0.7779397   0.9061483   0.3462029  )
        15        H      tau(  15) = (   0.6392499   0.1457279   0.5404125  )
        16        H      tau(  16) = (   0.3607501   0.8798430   0.5404125  )
        17        H      tau(  17) = (   0.1392499   0.3670576   0.4981787  )
        18        H      tau(  18) = (   0.8607501   0.6585133   0.4981787  )
        19        H      tau(  19) = (   0.3605328   0.8798946   0.1519977  )
        20        H      tau(  20) = (   0.6394672   0.1456763   0.1519977  )
        21        H      tau(  21) = (   0.8605328   0.6584617   0.1941994  )
        22        H      tau(  22) = (   0.1394672   0.3671092   0.1941994  )

     number of k points=    27
                       cart. coord. in units 2pi/alat
        k(    1) = (   0.0000000   0.0000000   0.0000000), wk =   0.0312500
        k(    2) = (   0.0000000   0.0000000   0.3610660), wk =   0.0625000
        k(    3) = (   0.0000000   0.0000000  -0.7221320), wk =   0.0312500
        k(    4) = (   0.0000000   0.2437667   0.0000000), wk =   0.0625000
        k(    5) = (   0.0000000   0.2437667   0.3610660), wk =   0.1250000
        k(    6) = (   0.0000000   0.2437667  -0.7221320), wk =   0.0625000
        k(    7) = (   0.0000000  -0.4875333   0.0000000), wk =   0.0312500
        k(    8) = (   0.0000000  -0.4875333   0.3610660), wk =   0.0625000
        k(    9) = (   0.0000000  -0.4875333  -0.7221320), wk =   0.0312500
        k(   10) = (   0.2500000   0.0000000   0.0000000), wk =   0.0625000
        k(   11) = (   0.2500000   0.0000000   0.3610660), wk =   0.1250000
        k(   12) = (   0.2500000   0.0000000  -0.7221320), wk =   0.0625000
        k(   13) = (   0.2500000   0.2437667   0.0000000), wk =   0.1250000
        k(   14) = (   0.2500000   0.2437667   0.3610660), wk =   0.2500000
        k(   15) = (   0.2500000   0.2437667  -0.7221320), wk =   0.1250000
        k(   16) = (   0.2500000  -0.4875333   0.0000000), wk =   0.0625000
        k(   17) = (   0.2500000  -0.4875333   0.3610660), wk =   0.1250000
        k(   18) = (   0.2500000  -0.4875333  -0.7221320), wk =   0.0625000
        k(   19) = (  -0.5000000   0.0000000   0.0000000), wk =   0.0312500
        k(   20) = (  -0.5000000   0.0000000   0.3610660), wk =   0.0625000
        k(   21) = (  -0.5000000   0.0000000  -0.7221320), wk =   0.0312500
        k(   22) = (  -0.5000000   0.2437667   0.0000000), wk =   0.0625000
        k(   23) = (  -0.5000000   0.2437667   0.3610660), wk =   0.1250000
        k(   24) = (  -0.5000000   0.2437667  -0.7221320), wk =   0.0625000
        k(   25) = (  -0.5000000  -0.4875333   0.0000000), wk =   0.0312500
        k(   26) = (  -0.5000000  -0.4875333   0.3610660), wk =   0.0625000
        k(   27) = (  -0.5000000  -0.4875333  -0.7221320), wk =   0.0312500

     Initial potential from superposition of free atoms

     starting charge      47.9682, renormalised to      48.0000
     Starting wfcs are   42 randomized atomic wfcs

     Self-consistent Calculation

     iteration #  1     ecut=   100.00 Ry     beta= 0.70
     Davidson diagonalization with overlap
     ethr =  1.00E-02,  avg # of iterations =  2.0

     total energy              =    -155.92735116 Ry
     estimated scf accuracy    <       2.08753960 Ry

[...]

     End of self-consistent calculation

          k = 0.0000 0.0000 0.0000 ( 24047 PWs)   bands (ev):

   -23.7767 -23.7671  -9.3483  -9.2550  -9.0480  -9.0067  -8.9776  -8.9102
    -5.9844  -5.0149  -4.3024  -4.1561  -1.6836  -0.7612  -0.6814  -0.3365
     0.0501   0.0711   0.1215   0.2396   0.4081   0.8273   0.8424   0.8850

[...]

          k =-0.5000 0.0000 0.0000 ( 24112 PWs)   bands (ev):

[...]

     highest occupied level (ev):     0.8885

!    total energy              =    -156.47485780 Ry
     estimated scf accuracy    <          3.8E-11 Ry

     The total energy is the sum of the following terms:
     one-electron contribution =     -21.46515391 Ry
     hartree contribution      =      25.27085618 Ry
     xc contribution           =     -49.14503030 Ry
     ewald contribution        =    -111.13552977 Ry

     convergence has been achieved in  11 iterations

     Forces acting on atoms (cartesian axes, Ry/au):

     atom    1 type  2   force =     0.00000000    0.00000000    0.00001331
     atom    2 type  2   force =     0.00000000    0.00000000   -0.00001331
     atom    3 type  1   force =    -0.00000077   -0.00000141   -0.00001256
     atom    4 type  1   force =     0.00000077    0.00000141   -0.00001256
     atom    5 type  1   force =    -0.00000077    0.00000141    0.00001256
     atom    6 type  1   force =     0.00000077   -0.00000141    0.00001256
     atom    7 type  3   force =    -0.00000385   -0.00000188   -0.00001646
     atom    8 type  3   force =     0.00000385    0.00000188   -0.00001646
     atom    9 type  3   force =    -0.00000385    0.00000188    0.00001646
     atom   10 type  3   force =     0.00000385   -0.00000188    0.00001646
     atom   11 type  3   force =    -0.00000212    0.00000466    0.00000562
     atom   12 type  3   force =     0.00000212   -0.00000466    0.00000562
     atom   13 type  3   force =    -0.00000212   -0.00000466   -0.00000562
     atom   14 type  3   force =     0.00000212    0.00000466   -0.00000562
     atom   15 type  3   force =     0.00002398   -0.00000873   -0.00000519
     atom   16 type  3   force =    -0.00002398    0.00000873   -0.00000519
     atom   17 type  3   force =     0.00002398    0.00000873    0.00000519
     atom   18 type  3   force =    -0.00002398   -0.00000873    0.00000519
     atom   19 type  3   force =     0.00002256   -0.00001080   -0.00000451
     atom   20 type  3   force =    -0.00002256    0.00001080   -0.00000451
     atom   21 type  3   force =     0.00002256    0.00001080    0.00000451
     atom   22 type  3   force =    -0.00002256   -0.00001080    0.00000451

     Total force =     0.000088     Total SCF correction =     0.000004

     Computing stress (Cartesian axis) and pressure

          total   stress  (Ry/bohr**3)                   (kbar)     P=        0.00
  -0.00000003   0.00000000   0.00000000           -0.00        0.00        0.00
   0.00000000  -0.00000005   0.00000000            0.00       -0.01        0.00
   0.00000000   0.00000000   0.00000010            0.00        0.00        0.01

     Volume is kept fixed: isostatic pressure set to zero

     BFGS Geometry Optimization
     Energy error            =      0.0E+00 Ry
     Gradient error          =      2.4E-05 Ry/Bohr
     Cell gradient error     =      1.3E-02 kbar

     number of scf cycles    =   1
     number of bfgs steps    =   0

     enthalpy           new  =    -156.4748577972 Ry

     new trust radius        =       0.0000260457 bohr
ibrav =      8
 celldm(1) =     12.61919384
 celldm(2) =      1.02557017
 celldm(3) =      0.69239626
Input lattice vectors:
     0.99999923     0.00000000     0.00000000
     0.00000000     1.02556939     0.00000000
     0.00000000     0.00000000     0.69239573
New lattice vectors in INITIAL alat:
     0.99999923     0.00000000     0.00000000
     0.00000000     1.02556939     0.00000000
     0.00000000     0.00000000     0.69239573
New lattice vectors in NEW alat (for information only):
     1.00000000     0.00000000     0.00000000
     0.00000000     1.02557017     0.00000000
     0.00000000     0.00000000     0.69239626
Discrepancy in bohr =     0.000000    0.000000    0.000000
     new conv_thr            =            1.0E-10 Ry

     new unit-cell volume =   1426.97029 a.u.^3 (   211.45518 Ang^3 )
     density =      2.62307 g/cm^3

CELL_PARAMETERS (alat= 12.61920353)
   0.999999231   0.000000000   0.000000000
   0.000000000   1.025569386   0.000000000
   0.000000000   0.000000000   0.692395729

ATOMIC_POSITIONS (crystal)
Ba               0.5000000000        0.5000000000        0.5001006885
Ba               0.0000000000        0.0000000000        0.9998993115
B                0.6102569548        0.2392022715        0.0000642192
B                0.3897430452        0.7607977285        0.0000642192
B                0.1102569548        0.2607977285        0.4999357808
B                0.8897430452        0.7392022715        0.4999357808
H                0.4340969469        0.2921555839        0.0002290498
H                0.5659030531        0.7078444161        0.0002290498
H                0.9340969469        0.2078444161        0.4997709502
H                0.0659030531        0.7921555839        0.4997709502
H                0.7220600998        0.3835553691       -0.0000077283
H                0.2779399002        0.6164446309       -0.0000077283
H                0.2220600998        0.1164446309        0.5000077283
H                0.7779399002        0.8835553691        0.5000077283
H                0.6392518250        0.1420937203        0.7804978194
H                0.3607481750        0.8579062797        0.7804978194
H                0.1392518250        0.3579062797        0.7195021806
H                0.8607481750        0.6420937203        0.7195021806
H                0.3605346186        0.8579550806        0.2195243323
H                0.6394653814        0.1420449194        0.2195243323
H                0.8605346186        0.6420449194        0.2804756677
H                0.1394653814        0.3579550806        0.2804756677

     Writing config-only to output data dir ./pwscf.save/ :
     XML data file
     NEW-OLD atomic charge density approx. for the potential

[...]

     Threshold (ethr) on eigenvalues was too large:
     Diagonalizing with lowered threshold

     Davidson diagonalization with overlap
     ethr =  6.29E-13,  avg # of iterations =  4.0

[...]

     Volume is kept fixed: isostatic pressure set to zero
     Energy error            =      7.9E-09 Ry
     Gradient error          =      2.3E-05 Ry/Bohr
     Cell gradient error     =      1.2E-02 kbar

[...]

     enthalpy           old  =    -156.4748577972 Ry
     enthalpy           new  =    -156.4748578052 Ry

     CASE: enthalpy          _new < enthalpy          _old

     WARNING: bfgs curvature condition failed, Theta= 0.846
     small trust_radius: resetting bfgs history

[...]

     Volume is kept fixed: isostatic pressure set to zero
     Energy error            =      7.1E-09 Ry
     Gradient error          =      2.2E-05 Ry/Bohr
     Cell gradient error     =      1.0E-02 kbar

     number of scf cycles    =   3
     number of bfgs steps    =   2

     enthalpy           old  =    -156.4748578052 Ry
     enthalpy           new  =    -156.4748578123 Ry

     CASE: enthalpy          _new < enthalpy          _old

     WARNING: bfgs curvature condition failed, Theta= 0.845
     Message from routine bfgs :: compute_trust_radius:
     history already reset at previous step: stopping
     small trust_radius: resetting bfgs history

     new trust radius        =       0.0000232335 bohr
ibrav =      8
 celldm(1) =     12.61917836
 celldm(2) =      1.02556884
 celldm(3) =      0.69239971
Input lattice vectors:
     0.99999801     0.00000000     0.00000000
     0.00000000     1.02556680     0.00000000
     0.00000000     0.00000000     0.69239833
New lattice vectors in INITIAL alat:
     0.99999801     0.00000000     0.00000000
     0.00000000     1.02556680     0.00000000
     0.00000000     0.00000000     0.69239833
New lattice vectors in NEW alat (for information only):
     1.00000000     0.00000000     0.00000000
     0.00000000     1.02556884     0.00000000
     0.00000000     0.00000000     0.69239971
Discrepancy in bohr =     0.000000    0.000000    0.000000
     new conv_thr            =            1.0E-12 Ry

     new unit-cell volume =   1426.97029 a.u.^3 (   211.45518 Ang^3 )
     density =      2.62307 g/cm^3

[...]

ATOMIC_POSITIONS (crystal)
Ba               0.5000000000        0.5000000000        0.5001029829
Ba               0.0000000000        0.0000000000        0.9998970171
B                0.6102567886        0.2392021717        0.0000617443
B                0.3897432114        0.7607978283        0.0000617443
B                0.1102567886        0.2607978283        0.4999382557
B                0.8897432114        0.7392021717        0.4999382557
H                0.4340963416        0.2921553140        0.0002249934
H                0.5659036584        0.7078446860        0.0002249934
H                0.9340963416        0.2078446860        0.4997750066
H                0.0659036584        0.7921553140        0.4997750066
H                0.7220597526        0.3835560752       -0.0000066534
H                0.2779402474        0.6164439248       -0.0000066534
H                0.2220597526        0.1164439248        0.5000066534
H                0.7779402474        0.8835560752        0.5000066534
H                0.6392553939        0.1420925845        0.7804970555
H                0.3607446061        0.8579074155        0.7804970555
H                0.1392553939        0.3579074155        0.7195029445
H                0.8607446061        0.6420925845        0.7195029445
H                0.3605379386        0.8579537222        0.2195233478
H                0.6394620614        0.1420462778        0.2195233478
H                0.8605379386        0.6420462778        0.2804766522
H                0.1394620614        0.3579537222        0.2804766522

     Writing config-only to output data dir ./pwscf.save/ :
     XML data file
     NEW-OLD atomic charge density approx. for the potential

     Self-consistent Calculation

[...]

     Threshold (ethr) on eigenvalues was too large:
     Diagonalizing with lowered threshold

     Davidson diagonalization with overlap
     ethr =  3.45E-13,  avg # of iterations =  4.1

[...]

     total energy              =    -156.47485782 Ry
     estimated scf accuracy    <          1.3E-11 Ry

     iteration #  3     ecut=   100.00 Ry     beta= 0.70
     Davidson diagonalization with overlap
     ethr =  1.00E-13,  avg # of iterations =  1.0

     End of self-consistent calculation

[...]

          k = 0.2500-0.4875-0.7221 ( 24084 PWs)   bands (ev):

[...]

          k =-0.5000-0.4875-0.7221 ( 24112 PWs)   bands (ev):

   -23.7579 -23.7579  -9.4683  -9.4683  -9.1117  -9.1117  -9.0481  -9.0481
    -4.9004  -4.9004  -4.3953  -4.3953  -1.4824  -1.4824  -0.7922  -0.7922
     0.3021   0.3021   0.3494   0.3494   0.4954   0.4954   0.7356   0.7356

     highest occupied level (ev):     0.8886

!    total energy              =    -156.47485782 Ry
     estimated scf accuracy    <          6.2E-13 Ry

     The total energy is the sum of the following terms:
     one-electron contribution =     -21.46491285 Ry
     hartree contribution      =      25.27072877 Ry
     xc contribution           =     -49.14501089 Ry
     ewald contribution        =    -111.13566285 Ry

     convergence has been achieved in   3 iterations

     Forces acting on atoms (cartesian axes, Ry/au):

     atom    1 type  2   force =     0.00000000    0.00000000    0.00000687
     atom    2 type  2   force =     0.00000000    0.00000000   -0.00000687
     atom    3 type  1   force =    -0.00000119   -0.00000007   -0.00000936
     atom    4 type  1   force =     0.00000119    0.00000007   -0.00000936
     atom    5 type  1   force =    -0.00000119    0.00000007    0.00000936
     atom    6 type  1   force =     0.00000119   -0.00000007    0.00000936
     atom    7 type  3   force =    -0.00000350   -0.00000173   -0.00001863
     atom    8 type  3   force =     0.00000350    0.00000173   -0.00001863
     atom    9 type  3   force =    -0.00000350    0.00000173    0.00001863
     atom   10 type  3   force =     0.00000350   -0.00000173    0.00001863
     atom   11 type  3   force =    -0.00000243    0.00000424    0.00000390
     atom   12 type  3   force =     0.00000243   -0.00000424    0.00000390
     atom   13 type  3   force =    -0.00000243   -0.00000424   -0.00000390
     atom   14 type  3   force =     0.00000243    0.00000424   -0.00000390
     atom   15 type  3   force =     0.00002113   -0.00000608   -0.00000179
     atom   16 type  3   force =    -0.00002113    0.00000608   -0.00000179
     atom   17 type  3   force =     0.00002113    0.00000608    0.00000179
     atom   18 type  3   force =    -0.00002113   -0.00000608    0.00000179
     atom   19 type  3   force =     0.00001958   -0.00000729   -0.00000425
     atom   20 type  3   force =    -0.00001958    0.00000729   -0.00000425
     atom   21 type  3   force =     0.00001958    0.00000729    0.00000425
     atom   22 type  3   force =    -0.00001958   -0.00000729    0.00000425

     Total force =     0.000076     Total SCF correction =     0.000001

     Computing stress (Cartesian axis) and pressure

          total   stress  (Ry/bohr**3)                   (kbar)     P=       -0.00
  -0.00000003   0.00000000   0.00000000           -0.00        0.00        0.00
   0.00000000  -0.00000006   0.00000000            0.00       -0.01        0.00
   0.00000000   0.00000000   0.00000005            0.00        0.00        0.01

     Volume is kept fixed: isostatic pressure set to zero
     Message from routine bfgs:
     history already reset at previous step: exiting
     Energy error            =      6.4E-09 Ry
     Gradient error          =      2.1E-05 Ry/Bohr
     Cell gradient error     =      9.3E-03 kbar
ibrav =      8
 celldm(1) =     12.61917836
 celldm(2) =      1.02556884
 celldm(3) =      0.69239971
Input lattice vectors:
     0.99999801     0.00000000     0.00000000
     0.00000000     1.02556680     0.00000000
     0.00000000     0.00000000     0.69239833
New lattice vectors in INITIAL alat:
     0.99999801     0.00000000     0.00000000
     0.00000000     1.02556680     0.00000000
     0.00000000     0.00000000     0.69239833
New lattice vectors in NEW alat (for information only):
     1.00000000     0.00000000     0.00000000
     0.00000000     1.02556884     0.00000000
     0.00000000     0.00000000     0.69239971
Discrepancy in bohr =     0.000000    0.000000    0.000000

     bfgs failed after   4 scf cycles and   3 bfgs steps, convergence not achieved
     (criteria: energy <  1.0E-05 Ry, force <  1.0E-05 Ry/Bohr, cell <  5.0E-01 kbar)

     End of BFGS Geometry Optimization

     Final enthalpy           =    -156.4748578187 Ry

     File ./pwscf.bfgs deleted, as requested
Begin final coordinates
     new unit-cell volume =   1426.97029 a.u.^3 (   211.45518 Ang^3 )
     density =      2.62307 g/cm^3

CELL_PARAMETERS (alat= 12.61920353)
   0.999998005   0.000000000   0.000000000
   0.000000000   1.025566798   0.000000000
   0.000000000   0.000000000   0.692398326

ATOMIC_POSITIONS (crystal)
Ba               0.5000000000        0.5000000000        0.5001029829
Ba               0.0000000000        0.0000000000        0.9998970171
B                0.6102567886        0.2392021717        0.0000617443
B                0.3897432114        0.7607978283        0.0000617443
B                0.1102567886        0.2607978283        0.4999382557
B                0.8897432114        0.7392021717        0.4999382557
H                0.4340963416        0.2921553140        0.0002249934
H                0.5659036584        0.7078446860        0.0002249934
H                0.9340963416        0.2078446860        0.4997750066
H                0.0659036584        0.7921553140        0.4997750066
H                0.7220597526        0.3835560752       -0.0000066534
H                0.2779402474        0.6164439248       -0.0000066534
H                0.2220597526        0.1164439248        0.5000066534
H                0.7779402474        0.8835560752        0.5000066534
H                0.6392553939        0.1420925845        0.7804970555
H                0.3607446061        0.8579074155        0.7804970555
H                0.1392553939        0.3579074155        0.7195029445
H                0.8607446061        0.6420925845        0.7195029445
H                0.3605379386        0.8579537222        0.2195233478
H                0.6394620614        0.1420462778        0.2195233478
H                0.8605379386        0.6420462778        0.2804766522
H                0.1394620614        0.3579537222        0.2804766522
End final coordinates

     Writing config-only to output data dir ./pwscf.save/ :
     XML data file

     Writing all to output data dir ./pwscf.save/ :
     XML data file, charge density, pseudopotentials, collected wavefunctions

     General routines

     Parallel routines

   This run was terminated on:  14:17:37  12Jul2024

   JOB DONE.