     Program PHONON v.7.3.1 starts on 12Jul2024 at 12:21: 6

     Waiting for input...
     Reading input from standard input

     Reading xml data from directory:

     ./pwscf.save/

     R & G space division:  proc/nbgrp/npool/nimage =      24
     Subspace diagonalization in iterative solution of the eigenvalue problem:
     a serial algorithm will be used

     IMPORTANT: XC functional enforced from input :
     Exchange-correlation= PBESOL
                           (   1   4  10   8   0   0   0)
     Any further DFT definition will be discarded
     Please, verify this is what you really want

     Using Slab Decomposition

     Reading collected, re-writing distributed wavefunctions in ./

     Dynamical matrices for ( 3, 3, 3)  uniform grid of q-points
     (   8 q-points):
       N         xq(1)         xq(2)         xq(3)
       1   0.000000000   0.000000000   0.000000000
       2   0.000000000   0.000000000   0.485222590
       3   0.000000000   0.326476207   0.000000000
       4   0.000000000   0.326476207   0.485222590
       5   0.333333333   0.000000000   0.000000000
       6   0.333333333   0.000000000   0.485222590
       7   0.333333333   0.326476207   0.000000000
       8   0.333333333   0.326476207   0.485222590

     Number and degeneracy of irreps per q-point
       N         xq(1)         xq(2)         xq(3)   N irreps
       1   0.000000000   0.000000000   0.000000000      66
     No degeneracy
       2   0.000000000   0.000000000   0.485222590      66
     No degeneracy
       3   0.000000000   0.326476207   0.000000000      66
     No degeneracy
       4   0.000000000   0.326476207   0.485222590      66
     No degeneracy
       5   0.333333333   0.000000000   0.000000000      66
     No degeneracy
       6   0.333333333   0.000000000   0.485222590      66
     No degeneracy
       7   0.333333333   0.326476207   0.000000000      66
     No degeneracy
       8   0.333333333   0.326476207   0.485222590      66
     No degeneracy

     Saving dvscf to file. Distribute only q points, not irreducible representations.

     Calculation of q =    0.0000000   0.0000000   0.0000000

     bravais-lattice index     =            8
     lattice parameter (alat)  =      12.7342  a.u.
     unit-cell volume          =    1448.3748 (a.u.)^3
     number of atoms/cell      =           22
     number of atomic types    =            3
     kinetic-energy cut-off    =     100.0000  Ry
     charge density cut-off    =     800.0000  Ry
     convergence threshold     =      1.0E-14
     beta                      =       0.7000
     number of iterations used =            4
     Exchange-correlation= PBESOL
                           (   1   4  10   8   0   0   0)

     celldm(1)=   12.73421  celldm(2)=    1.02100  celldm(3)=    0.68697
     celldm(4)=    0.00000  celldm(5)=    0.00000  celldm(6)=    0.00000

     crystal axes: (cart. coord. in units of alat)
               a(1) = (  1.0000  0.0000  0.0000 )
               a(2) = (  0.0000  1.0210  0.0000 )
               a(3) = (  0.0000  0.0000  0.6870 )

     reciprocal axes: (cart. coord. in units 2 pi/alat)
               b(1) = (  1.0000  0.0000  0.0000 )
               b(2) = (  0.0000  0.9794  0.0000 )
               b(3) = (  0.0000  0.0000  1.4557 )

     Atoms inside the unit cell:

     Cartesian axes

     site n.  atom      mass           positions (alat units)
        1  Ba    137.3270   tau(    1) = (    0.50000    0.51050    0.34349  )
        2  Ba    137.3270   tau(    2) = (    0.00000    0.00000    0.68697  )
        3  B      10.8110   tau(    3) = (    0.61255    0.24597    0.00000  )
        4  B      10.8110   tau(    4) = (    0.38745    0.77503    0.00000  )
        5  B      10.8110   tau(    5) = (    0.11255    0.26453    0.34348  )
        6  B      10.8110   tau(    6) = (    0.88745    0.75647    0.34348  )
        7  H       1.0079   tau(    7) = (    0.43723    0.29754   -0.00001  )
        8  H       1.0079   tau(    8) = (    0.56277    0.72346   -0.00001  )
        9  H       1.0079   tau(    9) = (    0.93723    0.21296    0.34350  )
       10  H       1.0079   tau(   10) = (    0.06277    0.80805    0.34350  )
       11  H       1.0079   tau(   11) = (    0.72141    0.39411    0.00001  )
       12  H       1.0079   tau(   12) = (    0.27859    0.62690    0.00001  )
       13  H       1.0079   tau(   13) = (    0.22141    0.11639    0.34348  )
       14  H       1.0079   tau(   14) = (    0.77859    0.90461    0.34348  )
       15  H       1.0079   tau(   15) = (    0.64262    0.14761    0.53629  )
       16  H       1.0079   tau(   16) = (    0.35738    0.87340    0.53629  )
       17  H       1.0079   tau(   17) = (    0.14262    0.36289    0.49416  )
       18  H       1.0079   tau(   18) = (    0.85738    0.65811    0.49416  )
       19  H       1.0079   tau(   19) = (    0.35739    0.87339    0.15068  )
       20  H       1.0079   tau(   20) = (    0.64261    0.14761    0.15068  )
       21  H       1.0079   tau(   21) = (    0.85739    0.65811    0.19280  )
       22  H       1.0079   tau(   22) = (    0.14261    0.36289    0.19280  )

     Computing dynamical matrix for
                    q = (   0.0000000   0.0000000   0.0000000 )

      5 Sym.Ops. (with q -> -q+G )

     G cutoff = 3286.0508  (  23069 G-vectors)     FFT grid: (120,120, 80)
     G cutoff = 1643.0254  (   8153 G-vectors)  smooth grid: ( 90, 90, 60)
     number of k points=    27

     PseudoPot. # 1 for B  read from file:
     /home/mehlhorn/pseudos/b_pbesol_v1.4.uspp.F.UPF
     MD5 check sum: 369b69bef2c3aeed4453bd8b804fd6a8
     Pseudo is Ultrasoft + core correction, Zval =  3.0
     Generated by new atomic code, or converted to UPF format
     Using radial grid of  781 points,  4 beta functions with:
                l(1) =   0
                l(2) =   0
                l(3) =   1
                l(4) =   1
     Q(r) pseudized with  8 coefficients,  rinner =    1.100   1.100   1.100

     PseudoPot. # 2 for Ba read from file:
     /home/mehlhorn/pseudos/Ba.nc.z_10.oncvpsp4.dojo.v4-sp.upf
     MD5 check sum: c10ed334bb677c0554edec7181ce9143
     Pseudo is Norm-conserving + core correction, Zval = 10.0
     Generated using ONCVPSP code by D. R. Hamann
     Using radial grid of 1938 points,  8 beta functions with:
                l(1) =   0
                l(2) =   0
                l(3) =   1
                l(4) =   1
                l(5) =   2
                l(6) =   2
                l(7) =   3
                l(8) =   3

     PseudoPot. # 3 for H  read from file:
     /home/mehlhorn/pseudos/H_ONCV_PBEsol-1.0.upf
     MD5 check sum: 398ef8f67c0a7342c05c87c5e19ea467
     Pseudo is Norm-conserving, Zval =  1.0
     Generated using ONCVPSP code by D. R. Hamann
     Using radial grid of 1180 points,  2 beta functions with:
                l(1) =   0
                l(2) =   0

     Mode symmetry, D_2  (222)  point group:

     Electric field:
     Dielectric constant
     Born effective charges in two ways

     Atomic displacements:
     There are   66 irreducible representations

     Representation     1      1 modes -  To be done

[...]

     Alpha used in Ewald sum =   2.8000

     Electric Fields Calculation

      thresh= 1.000E-02 alpha_mix =  0.700 |ddv_scf|^2 =  5.971E-09

[...]

     End of electric fields calculation

          Dielectric constant in cartesian axis

          (       3.081740896       0.000000000       0.000000000 )
          (       0.000000000       3.138668513       0.000000000 )
          (       0.000000000       0.000000000       3.282954252 )

          Effective charges (d Force / dE) in cartesian axis without acoustic sum rule applied (asr)

           atom    1  Ba    Mean Z*:        2.64715
      Ex  (        2.48089       -0.05054        0.00000 )
      Ey  (        0.28457        2.50145        0.00000 )
      Ez  (        0.00000        0.00000        2.95912 )
           atom    2  Ba    Mean Z*:        2.64715
      Ex  (        2.48089        0.05054        0.00000 )
      Ey  (       -0.28457        2.50145        0.00000 )
      Ez  (        0.00000        0.00000        2.95912 )
           atom    3  B     Mean Z*:       -0.12661
      Ex  (       -0.14483        0.03073       -0.00001 )
      Ey  (        0.17445       -0.03540        0.00002 )
      Ez  (        0.00002        0.00001       -0.19961 )
           atom    4  B     Mean Z*:       -0.12661
      Ex  (       -0.14483        0.03073        0.00001 )
      Ey  (        0.17445       -0.03540       -0.00002 )
      Ez  (       -0.00002       -0.00001       -0.19961 )
           atom    5  B     Mean Z*:       -0.12661
      Ex  (       -0.14483       -0.03073        0.00001 )
      Ey  (       -0.17445       -0.03540        0.00002 )
      Ez  (       -0.00002        0.00001       -0.19961 )
           atom    6  B     Mean Z*:       -0.12661
      Ex  (       -0.14483       -0.03073       -0.00001 )
      Ey  (       -0.17445       -0.03540       -0.00002 )
      Ez  (        0.00002       -0.00001       -0.19961 )
           atom    7  H     Mean Z*:       -0.30957
      Ex  (       -0.43244        0.13865       -0.00002 )
      Ey  (        0.14477       -0.24746        0.00003 )
      Ez  (       -0.00002        0.00003       -0.24880 )
           atom    8  H     Mean Z*:       -0.30957
      Ex  (       -0.43244        0.13865        0.00002 )
      Ey  (        0.14477       -0.24746       -0.00003 )
      Ez  (        0.00002       -0.00003       -0.24880 )
           atom    9  H     Mean Z*:       -0.30957
      Ex  (       -0.43244       -0.13865        0.00002 )
      Ey  (       -0.14477       -0.24746        0.00003 )
      Ez  (        0.00002        0.00003       -0.24880 )
           atom   10  H     Mean Z*:       -0.30957
      Ex  (       -0.43244       -0.13865       -0.00002 )
      Ey  (       -0.14477       -0.24746       -0.00003 )
      Ez  (       -0.00002       -0.00003       -0.24880 )
           atom   11  H     Mean Z*:       -0.31171
      Ex  (       -0.25979       -0.03764        0.00000 )
      Ey  (       -0.11177       -0.43144       -0.00002 )
      Ez  (       -0.00000       -0.00002       -0.24389 )
           atom   12  H     Mean Z*:       -0.31171
      Ex  (       -0.25979       -0.03764       -0.00000 )
      Ey  (       -0.11177       -0.43144        0.00002 )
      Ez  (        0.00000        0.00002       -0.24389 )
           atom   13  H     Mean Z*:       -0.31171
      Ex  (       -0.25979        0.03764       -0.00000 )
      Ey  (        0.11177       -0.43144       -0.00002 )
      Ez  (        0.00000       -0.00002       -0.24389 )
           atom   14  H     Mean Z*:       -0.31171
      Ex  (       -0.25979        0.03764        0.00000 )
      Ey  (        0.11177       -0.43144        0.00002 )
      Ez  (       -0.00000        0.00002       -0.24389 )
           atom   15  H     Mean Z*:       -0.28762
      Ex  (       -0.20184        0.14807        0.06251 )
      Ey  (        0.10013       -0.26761       -0.09647 )
      Ez  (        0.02337       -0.11313       -0.39342 )
           atom   16  H     Mean Z*:       -0.28762
[...]

[...]

     atomic species   valence    mass     pseudopotential
     B                 3.00    10.81100     B ( 1.00)
     Ba               10.00   137.32700     Ba( 1.00)
     H                 1.00     1.00794     H ( 1.00)

      4 Sym. Ops. (no inversion) found

[...]

     site n.     atom                  positions (alat units)
         1        Ba     tau(   1) = (   0.5000000   0.5105017   0.3434851  )
         2        Ba     tau(   2) = (   0.0000000   0.0000000   0.6869698  )
         3        B      tau(   3) = (   0.6125514   0.2459724   0.0000006  )
         4        B      tau(   4) = (   0.3874486   0.7750310   0.0000006  )
         5        B      tau(   5) = (   0.1125514   0.2645293   0.3434843  )
         6        B      tau(   6) = (   0.8874486   0.7564742   0.3434843  )
         7        H      tau(   7) = (   0.4372283   0.2975449  -0.0000137  )
         8        H      tau(   8) = (   0.5627717   0.7234585  -0.0000137  )
         9        H      tau(   9) = (   0.9372283   0.2129568   0.3434986  )
        10        H      tau(  10) = (   0.0627717   0.8080466   0.3434986  )
        11        H      tau(  11) = (   0.7214069   0.3941082   0.0000082  )
        12        H      tau(  12) = (   0.2785931   0.6268953   0.0000082  )
        13        H      tau(  13) = (   0.2214069   0.1163936   0.3434767  )
        14        H      tau(  14) = (   0.7785931   0.9046099   0.3434767  )
        15        H      tau(  15) = (   0.6426209   0.1476082   0.5362945  )
        16        H      tau(  16) = (   0.3573791   0.8733952   0.5362945  )
        17        H      tau(  17) = (   0.1426209   0.3628935   0.4941604  )
        18        H      tau(  18) = (   0.8573791   0.6581099   0.4941604  )
        19        H      tau(  19) = (   0.3573937   0.8733939   0.1506806  )
        20        H      tau(  20) = (   0.6426063   0.1476096   0.1506806  )
        21        H      tau(  21) = (   0.8573937   0.6581113   0.1928044  )
        22        H      tau(  22) = (   0.1426063   0.3628921   0.1928044  )

     number of k points=   250

     Number of k-points >= 100: set verbosity='high' to print them.

     The potential is recalculated from file :
     ./_ph0/pwscf.q_8/pwscf.save/charge-density

     Starting wfcs are   42 atomic wfcs

     Band Structure Calculation
     Davidson diagonalization with overlap

     ethr =  2.08E-11,  avg # of iterations = 22.0

     End of band structure calculation

     Number of k-points >= 100: set verbosity='high' to print the bands.

     highest occupied level (ev):     0.7613

     Writing config to output data dir ./_ph0/pwscf.q_8/pwscf.save/ :
     XML data file

     bravais-lattice index     =            8
     lattice parameter (alat)  =      12.7342  a.u.
     unit-cell volume          =    1448.3748 (a.u.)^3
     number of atoms/cell      =           22
     number of atomic types    =            3
     kinetic-energy cut-off    =     100.0000  Ry
     charge density cut-off    =     800.0000  Ry
     convergence threshold     =      1.0E-14
     beta                      =       0.7000
     number of iterations used =            4
     Exchange-correlation= PBESOL
                           (   1   4  10   8   0   0   0)

     celldm(1)=   12.73421  celldm(2)=    1.02100  celldm(3)=    0.68697
     celldm(4)=    0.00000  celldm(5)=    0.00000  celldm(6)=    0.00000

     crystal axes: (cart. coord. in units of alat)
               a(1) = (  1.0000  0.0000  0.0000 )
               a(2) = (  0.0000  1.0210  0.0000 )
               a(3) = (  0.0000  0.0000  0.6870 )

     reciprocal axes: (cart. coord. in units 2 pi/alat)
               b(1) = (  1.0000  0.0000  0.0000 )
               b(2) = (  0.0000  0.9794  0.0000 )
               b(3) = (  0.0000  0.0000  1.4557 )

     Atoms inside the unit cell:

     Cartesian axes

     site n.  atom      mass           positions (alat units)
        1  Ba    137.3270   tau(    1) = (    0.50000    0.51050    0.34349  )
        2  Ba    137.3270   tau(    2) = (    0.00000    0.00000    0.68697  )
        3  B      10.8110   tau(    3) = (    0.61255    0.24597    0.00000  )
        4  B      10.8110   tau(    4) = (    0.38745    0.77503    0.00000  )
        5  B      10.8110   tau(    5) = (    0.11255    0.26453    0.34348  )
        6  B      10.8110   tau(    6) = (    0.88745    0.75647    0.34348  )
        7  H       1.0079   tau(    7) = (    0.43723    0.29754   -0.00001  )
        8  H       1.0079   tau(    8) = (    0.56277    0.72346   -0.00001  )
        9  H       1.0079   tau(    9) = (    0.93723    0.21296    0.34350  )
       10  H       1.0079   tau(   10) = (    0.06277    0.80805    0.34350  )
       11  H       1.0079   tau(   11) = (    0.72141    0.39411    0.00001  )
       12  H       1.0079   tau(   12) = (    0.27859    0.62690    0.00001  )
       13  H       1.0079   tau(   13) = (    0.22141    0.11639    0.34348  )
       14  H       1.0079   tau(   14) = (    0.77859    0.90461    0.34348  )
       15  H       1.0079   tau(   15) = (    0.64262    0.14761    0.53629  )
       16  H       1.0079   tau(   16) = (    0.35738    0.87340    0.53629  )
       17  H       1.0079   tau(   17) = (    0.14262    0.36289    0.49416  )
       18  H       1.0079   tau(   18) = (    0.85738    0.65811    0.49416  )
       19  H       1.0079   tau(   19) = (    0.35739    0.87339    0.15068  )
       20  H       1.0079   tau(   20) = (    0.64261    0.14761    0.15068  )
       21  H       1.0079   tau(   21) = (    0.85739    0.65811    0.19280  )
       22  H       1.0079   tau(   22) = (    0.14261    0.36289    0.19280  )

     Computing dynamical matrix for
                    q = (   0.3333333   0.3264762   0.4852226 )

     No symmetry!

     G cutoff = 3286.0508  (  23069 G-vectors)     FFT grid: (120,120, 80)
     G cutoff = 1643.0254  (   8153 G-vectors)  smooth grid: ( 90, 90, 60)
     number of k points=   250

     PseudoPot. # 1 for B  read from file:
     /home/mehlhorn/pseudos/b_pbesol_v1.4.uspp.F.UPF
     MD5 check sum: 369b69bef2c3aeed4453bd8b804fd6a8
     Pseudo is Ultrasoft + core correction, Zval =  3.0
     Generated by new atomic code, or converted to UPF format
     Using radial grid of  781 points,  4 beta functions with:
                l(1) =   0
                l(2) =   0
                l(3) =   1
                l(4) =   1
     Q(r) pseudized with  8 coefficients,  rinner =    1.100   1.100   1.100

     PseudoPot. # 2 for Ba read from file:
     /home/mehlhorn/pseudos/Ba.nc.z_10.oncvpsp4.dojo.v4-sp.upf
     MD5 check sum: c10ed334bb677c0554edec7181ce9143
     Pseudo is Norm-conserving + core correction, Zval = 10.0
     Generated using ONCVPSP code by D. R. Hamann
     Using radial grid of 1938 points,  8 beta functions with:
                l(1) =   0
                l(2) =   0
                l(3) =   1
                l(4) =   1
                l(5) =   2
                l(6) =   2
                l(7) =   3
                l(8) =   3

     PseudoPot. # 3 for H  read from file:
     /home/mehlhorn/pseudos/H_ONCV_PBEsol-1.0.upf
     MD5 check sum: 398ef8f67c0a7342c05c87c5e19ea467
     Pseudo is Norm-conserving, Zval =  1.0
     Generated using ONCVPSP code by D. R. Hamann
     Using radial grid of 1180 points,  2 beta functions with:
                l(1) =   0
                l(2) =   0

[...]

     Atomic displacements:
     There are   66 irreducible representations

[...]

     Representation    66      1 modes -  To be done

     Alpha used in Ewald sum =   2.8000

[...]

     Representation #  66 mode #  66

     Self-consistent Calculation

[...]

      thresh= 1.117E-08 alpha_mix =  0.700 |ddv_scf|^2 =  1.044E-15

     End of self-consistent calculation

     Convergence has been achieved

     Number of q in the star =    4
     List of q in the star:
          1   0.333333333   0.326476207   0.485222590
          2   0.333333333  -0.326476207  -0.485222590
          3  -0.333333333   0.326476207  -0.485222590
          4  -0.333333333  -0.326476207   0.485222590
     In addition there is the -q list:
          1  -0.333333333  -0.326476207  -0.485222590
          2  -0.333333333   0.326476207   0.485222590
          3   0.333333333  -0.326476207   0.485222590
          4   0.333333333   0.326476207  -0.485222590

     Diagonalizing the dynamical matrix

     q = (    0.333333333   0.326476207   0.485222590 )

     freq (    1) =       1.253838 [THz] =      41.823520 [cm-1]
     freq (    2) =       1.316313 [THz] =      43.907489 [cm-1]
     freq (    3) =       1.687779 [THz] =      56.298263 [cm-1]
     freq (    4) =       1.932925 [THz] =      64.475432 [cm-1]
     freq (    5) =       2.886551 [THz] =      96.284963 [cm-1]
     freq (    6) =       2.983852 [THz] =      99.530604 [cm-1]
     freq (    7) =       4.815603 [THz] =     160.631210 [cm-1]
     freq (    8) =       4.908154 [THz] =     163.718395 [cm-1]
     freq (    9) =       5.535063 [THz] =     184.629830 [cm-1]
     freq (   10) =       5.851450 [THz] =     195.183378 [cm-1]
     freq (   11) =       6.208426 [THz] =     207.090815 [cm-1]
     freq (   12) =       6.255911 [THz] =     208.674742 [cm-1]
     freq (   13) =       6.511310 [THz] =     217.193912 [cm-1]
     freq (   14) =       6.833328 [THz] =     227.935287 [cm-1]
     freq (   15) =       7.319809 [THz] =     244.162555 [cm-1]
     freq (   16) =       7.401838 [THz] =     246.898746 [cm-1]
     freq (   17) =       8.343102 [THz] =     278.295926 [cm-1]
     freq (   18) =       8.425707 [THz] =     281.051327 [cm-1]
     freq (   19) =       8.614221 [THz] =     287.339474 [cm-1]
     freq (   20) =       8.636803 [THz] =     288.092740 [cm-1]
     freq (   21) =       9.349843 [THz] =     311.877182 [cm-1]
     freq (   22) =       9.440973 [THz] =     314.916971 [cm-1]
     freq (   23) =       9.484482 [THz] =     316.368278 [cm-1]
     freq (   24) =       9.683547 [THz] =     323.008344 [cm-1]
     freq (   25) =      10.226645 [THz] =     341.124143 [cm-1]
     freq (   26) =      10.380168 [THz] =     346.245147 [cm-1]
     freq (   27) =      12.995701 [THz] =     433.489912 [cm-1]
     freq (   28) =      13.055099 [THz] =     435.471229 [cm-1]
     freq (   29) =      13.115010 [THz] =     437.469657 [cm-1]
     freq (   30) =      13.211706 [THz] =     440.695076 [cm-1]
     freq (   31) =      30.787682 [THz] =    1026.966524 [cm-1]
     freq (   32) =      30.798730 [THz] =    1027.335047 [cm-1]
     freq (   33) =      30.963854 [THz] =    1032.843004 [cm-1]
     freq (   34) =      30.986659 [THz] =    1033.603695 [cm-1]
     freq (   35) =      31.864218 [THz] =    1062.875918 [cm-1]
     freq (   36) =      31.886555 [THz] =    1063.620977 [cm-1]
     freq (   37) =      31.921748 [THz] =    1064.794897 [cm-1]
     freq (   38) =      31.974101 [THz] =    1066.541201 [cm-1]
     freq (   39) =      32.264496 [THz] =    1076.227734 [cm-1]
     freq (   40) =      32.290282 [THz] =    1077.087855 [cm-1]
     freq (   41) =      32.380829 [THz] =    1080.108191 [cm-1]
     freq (   42) =      32.437349 [THz] =    1081.993514 [cm-1]
     freq (   43) =      35.842455 [THz] =    1195.575601 [cm-1]
     freq (   44) =      35.871993 [THz] =    1196.560894 [cm-1]
     freq (   45) =      36.028195 [THz] =    1201.771216 [cm-1]
     freq (   46) =      36.058221 [THz] =    1202.772773 [cm-1]
     freq (   47) =      36.125387 [THz] =    1205.013215 [cm-1]
     freq (   48) =      36.144439 [THz] =    1205.648706 [cm-1]
     freq (   49) =      36.187758 [THz] =    1207.093663 [cm-1]
     freq (   50) =      36.206895 [THz] =    1207.732014 [cm-1]
     freq (   51) =      68.221383 [THz] =    2275.620397 [cm-1]
     freq (   52) =      68.241327 [THz] =    2276.285638 [cm-1]
     freq (   53) =      68.267098 [THz] =    2277.145277 [cm-1]
     freq (   54) =      68.306460 [THz] =    2278.458264 [cm-1]
     freq (   55) =      70.126525 [THz] =    2339.169088 [cm-1]
     freq (   56) =      70.134946 [THz] =    2339.449975 [cm-1]
     freq (   57) =      70.272274 [THz] =    2344.030733 [cm-1]
     freq (   58) =      70.275885 [THz] =    2344.151205 [cm-1]
     freq (   59) =      70.860334 [THz] =    2363.646323 [cm-1]
     freq (   60) =      70.869453 [THz] =    2363.950509 [cm-1]
     freq (   61) =      70.953793 [THz] =    2366.763774 [cm-1]
     freq (   62) =      70.981810 [THz] =    2367.698330 [cm-1]
     freq (   63) =      71.450199 [THz] =    2383.322094 [cm-1]
     freq (   64) =      71.465579 [THz] =    2383.835120 [cm-1]
     freq (   65) =      71.555711 [THz] =    2386.841593 [cm-1]
     freq (   66) =      71.595718 [THz] =    2388.176092 [cm-1]

     Mode symmetry, C_1 (1)     point group:

     freq (   1-   1) =         41.8  [cm-1]   --> A
     freq (   2-   2) =         43.9  [cm-1]   --> A
     freq (   3-   3) =         56.3  [cm-1]   --> A
     freq (   4-   4) =         64.5  [cm-1]   --> A
     freq (   5-   5) =         96.3  [cm-1]   --> A
     freq (   6-   6) =         99.5  [cm-1]   --> A
     freq (   7-   7) =        160.6  [cm-1]   --> A
     freq (   8-   8) =        163.7  [cm-1]   --> A
     freq (   9-   9) =        184.6  [cm-1]   --> A
     freq (  10-  10) =        195.2  [cm-1]   --> A
     freq (  11-  11) =        207.1  [cm-1]   --> A
     freq (  12-  12) =        208.7  [cm-1]   --> A
     freq (  13-  13) =        217.2  [cm-1]   --> A
     freq (  14-  14) =        227.9  [cm-1]   --> A
     freq (  15-  15) =        244.2  [cm-1]   --> A
     freq (  16-  16) =        246.9  [cm-1]   --> A
     freq (  17-  17) =        278.3  [cm-1]   --> A
     freq (  18-  18) =        281.1  [cm-1]   --> A
     freq (  19-  19) =        287.3  [cm-1]   --> A
     freq (  20-  20) =        288.1  [cm-1]   --> A
     freq (  21-  21) =        311.9  [cm-1]   --> A
     freq (  22-  22) =        314.9  [cm-1]   --> A
     freq (  23-  23) =        316.4  [cm-1]   --> A
     freq (  24-  24) =        323.0  [cm-1]   --> A
     freq (  25-  25) =        341.1  [cm-1]   --> A
     freq (  26-  26) =        346.2  [cm-1]   --> A
     freq (  27-  27) =        433.5  [cm-1]   --> A
     freq (  28-  28) =        435.5  [cm-1]   --> A
     freq (  29-  29) =        437.5  [cm-1]   --> A
     freq (  30-  30) =        440.7  [cm-1]   --> A
     freq (  31-  31) =       1027.0  [cm-1]   --> A
     freq (  32-  32) =       1027.3  [cm-1]   --> A
     freq (  33-  33) =       1032.8  [cm-1]   --> A
     freq (  34-  34) =       1033.6  [cm-1]   --> A
     freq (  35-  35) =       1062.9  [cm-1]   --> A
     freq (  36-  36) =       1063.6  [cm-1]   --> A
     freq (  37-  37) =       1064.8  [cm-1]   --> A
     freq (  38-  38) =       1066.5  [cm-1]   --> A
     freq (  39-  39) =       1076.2  [cm-1]   --> A
     freq (  40-  40) =       1077.1  [cm-1]   --> A
     freq (  41-  41) =       1080.1  [cm-1]   --> A
     freq (  42-  42) =       1082.0  [cm-1]   --> A
     freq (  43-  43) =       1195.6  [cm-1]   --> A
     freq (  44-  44) =       1196.6  [cm-1]   --> A
     freq (  45-  45) =       1201.8  [cm-1]   --> A
     freq (  46-  46) =       1202.8  [cm-1]   --> A
     freq (  47-  47) =       1205.0  [cm-1]   --> A
     freq (  48-  48) =       1205.6  [cm-1]   --> A
     freq (  49-  49) =       1207.1  [cm-1]   --> A
     freq (  50-  50) =       1207.7  [cm-1]   --> A
     freq (  51-  51) =       2275.6  [cm-1]   --> A
     freq (  52-  52) =       2276.3  [cm-1]   --> A
     freq (  53-  53) =       2277.1  [cm-1]   --> A
     freq (  54-  54) =       2278.5  [cm-1]   --> A
     freq (  55-  55) =       2339.2  [cm-1]   --> A
     freq (  56-  56) =       2339.4  [cm-1]   --> A
     freq (  57-  57) =       2344.0  [cm-1]   --> A
     freq (  58-  58) =       2344.2  [cm-1]   --> A
     freq (  59-  59) =       2363.6  [cm-1]   --> A
     freq (  60-  60) =       2364.0  [cm-1]   --> A
     freq (  61-  61) =       2366.8  [cm-1]   --> A
     freq (  62-  62) =       2367.7  [cm-1]   --> A
     freq (  63-  63) =       2383.3  [cm-1]   --> A
     freq (  64-  64) =       2383.8  [cm-1]   --> A
     freq (  65-  65) =       2386.8  [cm-1]   --> A
     freq (  66-  66) =       2388.2  [cm-1]   --> A

     General routines

     Parallel routines

     INITIALIZATION:

     DYNAMICAL MATRIX:

                                        0.00s GPU  (  340612 calls)

                                        0.00s GPU  (   49434 calls)

      General routines

      Additional routines
                                        0.00s GPU  ( 5569369 calls)
                                        0.00s GPU  ( 5569369 calls)

   This run was terminated on:   6:22: 2  24Jul2024

   JOB DONE.