     Program PWSCF v.7.3.1 starts on 12Jul2024 at 14:14: 7

     Waiting for input...
     Reading input from standard input

     Current dimensions of program PWSCF are:
     Max number of different atomic species (ntypx) = 10
     Max number of k-points (npk) =  40000
     Max angular momentum in pseudopotentials (lmaxx) =  4

     R & G space division:  proc/nbgrp/npool/nimage =      16
     Subspace diagonalization in iterative solution of the eigenvalue problem:
     a serial algorithm will be used

     Using Slab Decomposition

     Title:
     volume variation

     bravais-lattice index     =            8
     lattice parameter (alat)  =      12.5770  a.u.
     unit-cell volume          =    1412.7006 (a.u.)^3
     number of atoms/cell      =           22
     number of atomic types    =            3
     number of electrons       =        48.00
     number of Kohn-Sham states=           24
     kinetic-energy cutoff     =     100.0000  Ry
     charge density cutoff     =     800.0000  Ry
     scf convergence threshold =      1.0E-10
     mixing beta               =       0.7000
     number of iterations used =            8  plain     mixing
     energy convergence thresh.=      1.0E-05
     force convergence thresh. =      1.0E-05
     press convergence thresh. =      5.0E-01
     Exchange-correlation= PBESOL
                           (   1   4  10   8   0   0   0)
     nstep                     =          300

     celldm(1)=  12.576999  celldm(2)=   1.025571  celldm(3)=   0.692394
     celldm(4)=   0.000000  celldm(5)=   0.000000  celldm(6)=   0.000000

     crystal axes: (cart. coord. in units of alat)
               a(1) = (   1.000000   0.000000   0.000000 )
               a(2) = (   0.000000   1.025571   0.000000 )
               a(3) = (   0.000000   0.000000   0.692394 )

     reciprocal axes: (cart. coord. in units 2 pi/alat)
               b(1) = (  1.000000  0.000000  0.000000 )
               b(2) = (  0.000000  0.975067  0.000000 )
               b(3) = (  0.000000  0.000000  1.444264 )

     PseudoPot. # 1 for B  read from file:
     /home/mehlhorn/pseudos/b_pbesol_v1.4.uspp.F.UPF
     MD5 check sum: 369b69bef2c3aeed4453bd8b804fd6a8
     Pseudo is Ultrasoft + core correction, Zval =  3.0
     Generated by new atomic code, or converted to UPF format
     Using radial grid of  781 points,  4 beta functions with:
                l(1) =   0
                l(2) =   0
                l(3) =   1
                l(4) =   1
     Q(r) pseudized with  8 coefficients,  rinner =    1.100   1.100   1.100

     PseudoPot. # 2 for Ba read from file:
     /home/mehlhorn/pseudos/Ba.nc.z_10.oncvpsp4.dojo.v4-sp.upf
     MD5 check sum: c10ed334bb677c0554edec7181ce9143
     Pseudo is Norm-conserving + core correction, Zval = 10.0
     Generated using ONCVPSP code by D. R. Hamann
     Using radial grid of 1938 points,  8 beta functions with:
                l(1) =   0
                l(2) =   0
                l(3) =   1
                l(4) =   1
                l(5) =   2
                l(6) =   2
                l(7) =   3
                l(8) =   3

     PseudoPot. # 3 for H  read from file:
     /home/mehlhorn/pseudos/H_ONCV_PBEsol-1.0.upf
     MD5 check sum: 398ef8f67c0a7342c05c87c5e19ea467
     Pseudo is Norm-conserving, Zval =  1.0
     Generated using ONCVPSP code by D. R. Hamann
     Using radial grid of 1180 points,  2 beta functions with:
                l(1) =   0
                l(2) =   0

     atomic species   valence    mass     pseudopotential
     B                 3.00    10.81100     B ( 1.00)
     Ba               10.00   137.32700     Ba( 1.00)
     H                 1.00     1.00794     H ( 1.00)

      4 Sym. Ops. (no inversion) found ( 2 have fractional translation)

   Cartesian axes

     site n.     atom                  positions (alat units)
         1        Ba     tau(   1) = (   0.5000000   0.5127855   0.3462657  )
         2        Ba     tau(   2) = (   0.0000000   0.0000000   0.6923255  )
         3        B      tau(   3) = (   0.6102570   0.2453190   0.0000455  )
         4        B      tau(   4) = (   0.3897430   0.7802519   0.0000455  )
         5        B      tau(   5) = (   0.1102570   0.2674665   0.3461516  )
         6        B      tau(   6) = (   0.8897430   0.7581045   0.3461516  )
         7        H      tau(   7) = (   0.4340973   0.2996264   0.0001599  )
         8        H      tau(   8) = (   0.5659027   0.7259445   0.0001599  )
         9        H      tau(   9) = (   0.9340973   0.2131590   0.3460372  )
        10        H      tau(  10) = (   0.0659027   0.8124119   0.3460372  )
        11        H      tau(  11) = (   0.7220603   0.3933629  -0.0000058  )
        12        H      tau(  12) = (   0.2779397   0.6322081  -0.0000058  )
        13        H      tau(  13) = (   0.2220603   0.1194226   0.3462029  )
        14        H      tau(  14) = (   0.7779397   0.9061483   0.3462029  )
        15        H      tau(  15) = (   0.6392499   0.1457279   0.5404125  )
        16        H      tau(  16) = (   0.3607501   0.8798430   0.5404125  )
        17        H      tau(  17) = (   0.1392499   0.3670576   0.4981787  )
        18        H      tau(  18) = (   0.8607501   0.6585133   0.4981787  )
        19        H      tau(  19) = (   0.3605328   0.8798946   0.1519977  )
        20        H      tau(  20) = (   0.6394672   0.1456763   0.1519977  )
        21        H      tau(  21) = (   0.8605328   0.6584617   0.1941994  )
        22        H      tau(  22) = (   0.1394672   0.3671092   0.1941994  )

     number of k points=    27
                       cart. coord. in units 2pi/alat
        k(    1) = (   0.0000000   0.0000000   0.0000000), wk =   0.0312500
        k(    2) = (   0.0000000   0.0000000   0.3610660), wk =   0.0625000
        k(    3) = (   0.0000000   0.0000000  -0.7221320), wk =   0.0312500
        k(    4) = (   0.0000000   0.2437667   0.0000000), wk =   0.0625000
        k(    5) = (   0.0000000   0.2437667   0.3610660), wk =   0.1250000
        k(    6) = (   0.0000000   0.2437667  -0.7221320), wk =   0.0625000
        k(    7) = (   0.0000000  -0.4875333   0.0000000), wk =   0.0312500
        k(    8) = (   0.0000000  -0.4875333   0.3610660), wk =   0.0625000
        k(    9) = (   0.0000000  -0.4875333  -0.7221320), wk =   0.0312500
        k(   10) = (   0.2500000   0.0000000   0.0000000), wk =   0.0625000
        k(   11) = (   0.2500000   0.0000000   0.3610660), wk =   0.1250000
        k(   12) = (   0.2500000   0.0000000  -0.7221320), wk =   0.0625000
        k(   13) = (   0.2500000   0.2437667   0.0000000), wk =   0.1250000
        k(   14) = (   0.2500000   0.2437667   0.3610660), wk =   0.2500000
        k(   15) = (   0.2500000   0.2437667  -0.7221320), wk =   0.1250000
        k(   16) = (   0.2500000  -0.4875333   0.0000000), wk =   0.0625000
        k(   17) = (   0.2500000  -0.4875333   0.3610660), wk =   0.1250000
        k(   18) = (   0.2500000  -0.4875333  -0.7221320), wk =   0.0625000
        k(   19) = (  -0.5000000   0.0000000   0.0000000), wk =   0.0312500
        k(   20) = (  -0.5000000   0.0000000   0.3610660), wk =   0.0625000
        k(   21) = (  -0.5000000   0.0000000  -0.7221320), wk =   0.0312500
        k(   22) = (  -0.5000000   0.2437667   0.0000000), wk =   0.0625000
        k(   23) = (  -0.5000000   0.2437667   0.3610660), wk =   0.1250000
        k(   24) = (  -0.5000000   0.2437667  -0.7221320), wk =   0.0625000
        k(   25) = (  -0.5000000  -0.4875333   0.0000000), wk =   0.0312500
        k(   26) = (  -0.5000000  -0.4875333   0.3610660), wk =   0.0625000
        k(   27) = (  -0.5000000  -0.4875333  -0.7221320), wk =   0.0312500

     Initial potential from superposition of free atoms

     starting charge      47.9682, renormalised to      48.0000
     Starting wfcs are   42 randomized atomic wfcs

     Self-consistent Calculation

     iteration #  1     ecut=   100.00 Ry     beta= 0.70
     Davidson diagonalization with overlap
     ethr =  1.00E-02,  avg # of iterations =  2.0

     total energy              =    -155.92100935 Ry
     estimated scf accuracy    <       2.11050798 Ry

[...]

     End of self-consistent calculation

          k = 0.0000 0.0000 0.0000 ( 23847 PWs)   bands (ev):

   -23.6756 -23.6654  -9.2706  -9.1726  -8.9556  -8.9120  -8.8838  -8.8132
    -5.9551  -4.9767  -4.2344  -4.0921  -1.6478  -0.7215  -0.6258  -0.2917
     0.1007   0.1265   0.1820   0.2931   0.4654   0.8897   0.9025   0.9455

[...]

          k =-0.5000 0.0000 0.0000 ( 23860 PWs)   bands (ev):

[...]

     highest occupied level (ev):     0.9526

!    total energy              =    -156.47455270 Ry
     estimated scf accuracy    <          5.5E-11 Ry

     The total energy is the sum of the following terms:
     one-electron contribution =     -20.91441581 Ry
     hartree contribution      =      25.14507749 Ry
     xc contribution           =     -49.19674379 Ry
     ewald contribution        =    -111.50847058 Ry

     convergence has been achieved in  11 iterations

     Forces acting on atoms (cartesian axes, Ry/au):

     atom    1 type  2   force =     0.00000000    0.00000000    0.00001385
     atom    2 type  2   force =     0.00000000    0.00000000   -0.00001385
     atom    3 type  1   force =    -0.00006784   -0.00032754   -0.00001219
     atom    4 type  1   force =     0.00006784    0.00032754   -0.00001219
     atom    5 type  1   force =    -0.00006784    0.00032754    0.00001219
     atom    6 type  1   force =     0.00006784   -0.00032754    0.00001219
     atom    7 type  3   force =    -0.00273727    0.00068782   -0.00001567
     atom    8 type  3   force =     0.00273727   -0.00068782   -0.00001567
     atom    9 type  3   force =    -0.00273727   -0.00068782    0.00001567
     atom   10 type  3   force =     0.00273727    0.00068782    0.00001567
     atom   11 type  3   force =     0.00180436    0.00218528    0.00000516
     atom   12 type  3   force =    -0.00180436   -0.00218528    0.00000516
     atom   13 type  3   force =     0.00180436   -0.00218528   -0.00000516
     atom   14 type  3   force =    -0.00180436    0.00218528   -0.00000516
     atom   15 type  3   force =     0.00036035   -0.00161522   -0.00244351
     atom   16 type  3   force =    -0.00036035    0.00161522   -0.00244351
     atom   17 type  3   force =     0.00036035    0.00161522    0.00244351
     atom   18 type  3   force =    -0.00036035   -0.00161522    0.00244351
     atom   19 type  3   force =    -0.00031590    0.00159578    0.00243302
     atom   20 type  3   force =     0.00031590   -0.00159578    0.00243302
     atom   21 type  3   force =    -0.00031590   -0.00159578   -0.00243302
     atom   22 type  3   force =     0.00031590    0.00159578   -0.00243302

     Total force =     0.011556     Total SCF correction =     0.000004

     Computing stress (Cartesian axis) and pressure

          total   stress  (Ry/bohr**3)                   (kbar)     P=        6.25
   0.00003943   0.00000000   0.00000000            5.80        0.00        0.00
   0.00000000   0.00004022   0.00000000            0.00        5.92        0.00
   0.00000000   0.00000000   0.00004774            0.00        0.00        7.02

     Volume is kept fixed: isostatic pressure set to zero

     BFGS Geometry Optimization
     Energy error            =      0.0E+00 Ry
     Gradient error          =      2.7E-03 Ry/Bohr
     Cell gradient error     =      7.8E-01 kbar

     number of scf cycles    =   1
     number of bfgs steps    =   0

     enthalpy           new  =    -156.4745526972 Ry

     new trust radius        =       0.0029511882 bohr
ibrav =      8
 celldm(1) =     12.57604462
 celldm(2) =      1.02559124
 celldm(3) =      0.69253801
Input lattice vectors:
     0.99992415     0.00000000     0.00000000
     0.00000000     1.02551346     0.00000000
     0.00000000     0.00000000     0.69248548
New lattice vectors in INITIAL alat:
     0.99992415     0.00000000     0.00000000
     0.00000000     1.02551346     0.00000000
     0.00000000     0.00000000     0.69248548
New lattice vectors in NEW alat (for information only):
     1.00000000     0.00000000     0.00000000
     0.00000000     1.02559124     0.00000000
     0.00000000     0.00000000     0.69253801
Discrepancy in bohr =     0.000000    0.000000    0.000000
     new conv_thr            =            1.0E-10 Ry

     new unit-cell volume =   1412.70059 a.u.^3 (   209.34063 Ang^3 )
     density =      2.64957 g/cm^3

CELL_PARAMETERS (alat= 12.57699853)
   0.999924155   0.000000000   0.000000000
   0.000000000   1.025513456   0.000000000
   0.000000000   0.000000000   0.692485481

ATOMIC_POSITIONS (crystal)
Ba               0.5000000000        0.5000000000        0.5001007557
Ba               0.0000000000        0.0000000000        0.9998992443
B                0.6102516223        0.2391769866        0.0000642576
B                0.3897483777        0.7608230134        0.0000642576
B                0.1102516223        0.2608230134        0.4999357424
B                0.8897483777        0.7391769866        0.4999357424
H                0.4338796111        0.2922090541        0.0002291336
H                0.5661203889        0.7077909459        0.0002291336
H                0.9338796111        0.2077909459        0.4997708664
H                0.0661203889        0.7922090541        0.4997708664
H                0.7222037329        0.3837244290       -0.0000077789
H                0.2777962671        0.6162755710       -0.0000077789
H                0.2222037329        0.1162755710        0.5000077789
H                0.7777962671        0.8837244290        0.5000077789
H                0.6392785758        0.1419691705        0.7802178168
H                0.3607214242        0.8580308295        0.7802178168
H                0.1392785758        0.3580308295        0.7197821832
H                0.8607214242        0.6419691705        0.7197821832
H                0.3605077132        0.8580796319        0.2198042407
H                0.6394922868        0.1419203681        0.2198042407
H                0.8605077132        0.6419203681        0.2801957593
H                0.1394922868        0.3580796319        0.2801957593

     Writing config-only to output data dir ./pwscf.save/ :
     XML data file
     NEW-OLD atomic charge density approx. for the potential

[...]

     Threshold (ethr) on eigenvalues was too large:
     Diagonalizing with lowered threshold

     Davidson diagonalization with overlap
     ethr =  5.34E-08,  avg # of iterations =  2.0

[...]

     Volume is kept fixed: isostatic pressure set to zero
     Energy error            =      1.1E-04 Ry
     Gradient error          =      1.7E-03 Ry/Bohr
     Cell gradient error     =      6.0E-01 kbar

[...]

     enthalpy           old  =    -156.4745526972 Ry
     enthalpy           new  =    -156.4746606672 Ry

     CASE: enthalpy          _new < enthalpy          _old

[...]

     WARNING: bfgs curvature condition failed, Theta= 0.929
     new trust radius        =       0.0006297709 bohr
ibrav =      8
 celldm(1) =     12.57286571
 celldm(2) =      1.02561118
 celldm(3) =      0.69304997
Input lattice vectors:
     0.99967140     0.00000000     0.00000000
     0.00000000     1.02527416     0.00000000
     0.00000000     0.00000000     0.69282223
New lattice vectors in INITIAL alat:
     0.99967140     0.00000000     0.00000000
     0.00000000     1.02527416     0.00000000
     0.00000000     0.00000000     0.69282223
New lattice vectors in NEW alat (for information only):
     1.00000000     0.00000000     0.00000000
     0.00000000     1.02561118     0.00000000
     0.00000000     0.00000000     0.69304997
Discrepancy in bohr =     0.000000    0.000000    0.000000
     new conv_thr            =            1.0E-12 Ry

[...]

     small trust_radius: resetting bfgs history

[...]

     Volume is kept fixed: isostatic pressure set to zero
     Energy error            =      1.4E-09 Ry
     Gradient error          =      1.0E-05 Ry/Bohr
     Cell gradient error     =      5.7E-03 kbar

     number of scf cycles    =  47
     number of bfgs steps    =  46

     enthalpy           old  =    -156.4747676722 Ry
     enthalpy           new  =    -156.4747676736 Ry

     CASE: enthalpy          _new < enthalpy          _old

     WARNING: bfgs curvature condition failed, Theta= 0.846
     Message from routine bfgs :: compute_trust_radius:
     history already reset at previous step: stopping
     small trust_radius: resetting bfgs history

     new trust radius        =       0.0000138276 bohr
ibrav =      8
 celldm(1) =     12.54530691
 celldm(2) =      1.02836833
 celldm(3) =      0.69575696
Input lattice vectors:
     0.99748019     0.00000000     0.00000000
     0.00000000     1.02577704     0.00000000
     0.00000000     0.00000000     0.69400379
New lattice vectors in INITIAL alat:
     0.99748019     0.00000000     0.00000000
     0.00000000     1.02577704     0.00000000
     0.00000000     0.00000000     0.69400379
New lattice vectors in NEW alat (for information only):
     1.00000000     0.00000000     0.00000000
     0.00000000     1.02836833     0.00000000
     0.00000000     0.00000000     0.69575696
Discrepancy in bohr =     0.000000    0.000000    0.000000
     new conv_thr            =            1.0E-12 Ry

     new unit-cell volume =   1412.70059 a.u.^3 (   209.34063 Ang^3 )
     density =      2.64957 g/cm^3

[...]

ATOMIC_POSITIONS (crystal)
Ba               0.5000000000        0.5000000000        0.5000183470
Ba               0.0000000000        0.0000000000        0.9999816530
B                0.6087522878        0.2381836465        0.0000019225
B                0.3912477122        0.7618163535        0.0000019225
B                0.1087522878        0.2618163535        0.4999980775
B                0.8912477122        0.7381836465        0.4999980775
H                0.4319651627        0.2924123516        0.0000103309
H                0.5680348373        0.7075876484        0.0000103309
H                0.9319651627        0.2075876484        0.4999896691
H                0.0680348373        0.7924123516        0.4999896691
H                0.7221955169        0.3822761835       -0.0000143099
H                0.2778044831        0.6177238165       -0.0000143099
H                0.2221955169        0.1177238165        0.5000143099
H                0.7778044831        0.8822761835        0.5000143099
H                0.6374120761        0.1406042355        0.7803050370
H                0.3625879239        0.8593957645        0.7803050370
H                0.1374120761        0.3593957645        0.7196949630
H                0.8625879239        0.6406042355        0.7196949630
H                0.3625721899        0.8593982990        0.2196923625
H                0.6374278101        0.1406017010        0.2196923625
H                0.8625721899        0.6406017010        0.2803076375
H                0.1374278101        0.3593982990        0.2803076375

     Writing config-only to output data dir ./pwscf.save/ :
     XML data file
     NEW-OLD atomic charge density approx. for the potential

     Self-consistent Calculation

[...]

     Threshold (ethr) on eigenvalues was too large:
     Diagonalizing with lowered threshold

     Davidson diagonalization with overlap
     ethr =  1.65E-13,  avg # of iterations =  4.3

[...]

     total energy              =    -156.47476767 Ry
     estimated scf accuracy    <          1.6E-12 Ry

     iteration #  3     ecut=   100.00 Ry     beta= 0.70
     Davidson diagonalization with overlap
     ethr =  1.00E-13,  avg # of iterations =  1.0

     End of self-consistent calculation

[...]

          k = 0.2506-0.4874-0.7205 ( 23844 PWs)   bands (ev):

[...]

          k =-0.5013-0.4874-0.7205 ( 23880 PWs)   bands (ev):

   -23.6587 -23.6587  -9.3838  -9.3838  -9.0242  -9.0242  -8.9546  -8.9546
    -4.8318  -4.8318  -4.3090  -4.3090  -1.4356  -1.4356  -0.7233  -0.7233
     0.3868   0.3868   0.4096   0.4096   0.5800   0.5800   0.8147   0.8147

     highest occupied level (ev):     0.9820

!    total energy              =    -156.47476767 Ry
     estimated scf accuracy    <          8.6E-14 Ry

     The total energy is the sum of the following terms:
     one-electron contribution =     -20.45570285 Ry
     hartree contribution      =      24.91659284 Ry
     xc contribution           =     -49.16253932 Ry
     ewald contribution        =    -111.77311835 Ry

     convergence has been achieved in   3 iterations

     Forces acting on atoms (cartesian axes, Ry/au):

     atom    1 type  2   force =     0.00000000    0.00000000   -0.00000812
     atom    2 type  2   force =     0.00000000    0.00000000    0.00000812
     atom    3 type  1   force =     0.00000382   -0.00000069   -0.00000246
     atom    4 type  1   force =    -0.00000382    0.00000069   -0.00000246
     atom    5 type  1   force =     0.00000382    0.00000069    0.00000246
     atom    6 type  1   force =    -0.00000382   -0.00000069    0.00000246
     atom    7 type  3   force =     0.00000379    0.00000287    0.00000138
     atom    8 type  3   force =    -0.00000379   -0.00000287    0.00000138
     atom    9 type  3   force =     0.00000379   -0.00000287   -0.00000138
     atom   10 type  3   force =    -0.00000379    0.00000287   -0.00000138
     atom   11 type  3   force =     0.00001007   -0.00000660    0.00000594
     atom   12 type  3   force =    -0.00001007    0.00000660    0.00000594
     atom   13 type  3   force =     0.00001007    0.00000660   -0.00000594
     atom   14 type  3   force =    -0.00001007   -0.00000660   -0.00000594
     atom   15 type  3   force =     0.00000061   -0.00000306   -0.00000167
     atom   16 type  3   force =    -0.00000061    0.00000306   -0.00000167
     atom   17 type  3   force =     0.00000061    0.00000306    0.00000167
     atom   18 type  3   force =    -0.00000061   -0.00000306    0.00000167
     atom   19 type  3   force =     0.00000054   -0.00000275   -0.00000034
     atom   20 type  3   force =    -0.00000054    0.00000275   -0.00000034
     atom   21 type  3   force =     0.00000054    0.00000275    0.00000034
     atom   22 type  3   force =    -0.00000054   -0.00000275    0.00000034

     Total force =     0.000033     Total SCF correction =     0.000000

     Computing stress (Cartesian axis) and pressure

          total   stress  (Ry/bohr**3)                   (kbar)     P=        1.81
   0.00001225   0.00000000   0.00000000            1.80        0.00        0.00
   0.00000000   0.00001232   0.00000000            0.00        1.81        0.00
   0.00000000   0.00000000   0.00001227            0.00        0.00        1.81

     Volume is kept fixed: isostatic pressure set to zero
     Message from routine bfgs:
     history already reset at previous step: exiting
     Energy error            =      1.3E-09 Ry
     Gradient error          =      1.0E-05 Ry/Bohr
     Cell gradient error     =      5.6E-03 kbar
ibrav =      8
 celldm(1) =     12.54530691
 celldm(2) =      1.02836833
 celldm(3) =      0.69575696
Input lattice vectors:
     0.99748019     0.00000000     0.00000000
     0.00000000     1.02577704     0.00000000
     0.00000000     0.00000000     0.69400379
New lattice vectors in INITIAL alat:
     0.99748019     0.00000000     0.00000000
     0.00000000     1.02577704     0.00000000
     0.00000000     0.00000000     0.69400379
New lattice vectors in NEW alat (for information only):
     1.00000000     0.00000000     0.00000000
     0.00000000     1.02836833     0.00000000
     0.00000000     0.00000000     0.69575696
Discrepancy in bohr =     0.000000    0.000000    0.000000

     bfgs failed after  48 scf cycles and  47 bfgs steps, convergence not achieved
     (criteria: energy <  1.0E-05 Ry, force <  1.0E-05 Ry/Bohr, cell <  5.0E-01 kbar)

     End of BFGS Geometry Optimization

     Final enthalpy           =    -156.4747676749 Ry

     File ./pwscf.bfgs deleted, as requested
Begin final coordinates
     new unit-cell volume =   1412.70059 a.u.^3 (   209.34063 Ang^3 )
     density =      2.64957 g/cm^3

CELL_PARAMETERS (alat= 12.57699853)
   0.997480192   0.000000000   0.000000000
   0.000000000   1.025777041   0.000000000
   0.000000000   0.000000000   0.694003787

ATOMIC_POSITIONS (crystal)
Ba               0.5000000000        0.5000000000        0.5000183470
Ba               0.0000000000        0.0000000000        0.9999816530
B                0.6087522878        0.2381836465        0.0000019225
B                0.3912477122        0.7618163535        0.0000019225
B                0.1087522878        0.2618163535        0.4999980775
B                0.8912477122        0.7381836465        0.4999980775
H                0.4319651627        0.2924123516        0.0000103309
H                0.5680348373        0.7075876484        0.0000103309
H                0.9319651627        0.2075876484        0.4999896691
H                0.0680348373        0.7924123516        0.4999896691
H                0.7221955169        0.3822761835       -0.0000143099
H                0.2778044831        0.6177238165       -0.0000143099
H                0.2221955169        0.1177238165        0.5000143099
H                0.7778044831        0.8822761835        0.5000143099
H                0.6374120761        0.1406042355        0.7803050370
H                0.3625879239        0.8593957645        0.7803050370
H                0.1374120761        0.3593957645        0.7196949630
H                0.8625879239        0.6406042355        0.7196949630
H                0.3625721899        0.8593982990        0.2196923625
H                0.6374278101        0.1406017010        0.2196923625
H                0.8625721899        0.6406017010        0.2803076375
H                0.1374278101        0.3593982990        0.2803076375
End final coordinates

     Writing config-only to output data dir ./pwscf.save/ :
     XML data file

     Writing all to output data dir ./pwscf.save/ :
     XML data file, charge density, pseudopotentials, collected wavefunctions

     General routines

     Parallel routines

   This run was terminated on:  15: 0:12  12Jul2024

   JOB DONE.