     Program PHONON v.7.3.1 starts on 12Jul2024 at 12:20:26

     Waiting for input...
     Reading input from standard input

     Reading xml data from directory:

     ./pwscf.save/

     R & G space division:  proc/nbgrp/npool/nimage =      24
     Subspace diagonalization in iterative solution of the eigenvalue problem:
     a serial algorithm will be used

     IMPORTANT: XC functional enforced from input :
     Exchange-correlation= PBESOL
                           (   1   4  10   8   0   0   0)
     Any further DFT definition will be discarded
     Please, verify this is what you really want

     Using Slab Decomposition

     Reading collected, re-writing distributed wavefunctions in ./

     Dynamical matrices for ( 3, 3, 3)  uniform grid of q-points
     (   8 q-points):
       N         xq(1)         xq(2)         xq(3)
       1   0.000000000   0.000000000   0.000000000
       2   0.000000000   0.000000000   0.477897177
       3   0.000000000   0.323605610   0.000000000
       4   0.000000000   0.323605610   0.477897177
       5   0.333333333   0.000000000   0.000000000
       6   0.333333333   0.000000000   0.477897177
       7   0.333333333   0.323605610   0.000000000
       8   0.333333333   0.323605610   0.477897177

     Number and degeneracy of irreps per q-point
       N         xq(1)         xq(2)         xq(3)   N irreps
       1   0.000000000   0.000000000   0.000000000      66
     No degeneracy
Eigenvectors exchange needed   25   57
       2   0.000000000   0.000000000   0.477897177      65
        1   1   1   1   1   1   1   1   1   1   1   1   1   1   1   1   1   1
   1   1   1   1   1   1   2   1   1   1   1   1   1   1   1   1   1   1
   1   1   1   1   1   1   1   1   1   1   1   1   1   1   1   1   1   1
   1   1   1   1   1   1   1   1   1   1   1
       3   0.000000000   0.323605610   0.000000000      66
     No degeneracy
       4   0.000000000   0.323605610   0.477897177      66
     No degeneracy
       5   0.333333333   0.000000000   0.000000000      66
     No degeneracy
       6   0.333333333   0.000000000   0.477897177      66
     No degeneracy
       7   0.333333333   0.323605610   0.000000000      66
     No degeneracy
       8   0.333333333   0.323605610   0.477897177      66
     No degeneracy

     Saving dvscf to file. Distribute only q points, not irreducible representations.

     Calculation of q =    0.0000000   0.0000000   0.0000000

     bravais-lattice index     =            8
     lattice parameter (alat)  =      12.5069  a.u.
     unit-cell volume          =    1405.5657 (a.u.)^3
     number of atoms/cell      =           22
     number of atomic types    =            3
     kinetic-energy cut-off    =     100.0000  Ry
     charge density cut-off    =     800.0000  Ry
     convergence threshold     =      1.0E-14
     beta                      =       0.7000
     number of iterations used =            4
     Exchange-correlation= PBESOL
                           (   1   4  10   8   0   0   0)

     celldm(1)=   12.50685  celldm(2)=    1.03006  celldm(3)=    0.69750
     celldm(4)=    0.00000  celldm(5)=    0.00000  celldm(6)=    0.00000

     crystal axes: (cart. coord. in units of alat)
               a(1) = (  1.0000  0.0000  0.0000 )
               a(2) = (  0.0000  1.0301  0.0000 )
               a(3) = (  0.0000  0.0000  0.6975 )

     reciprocal axes: (cart. coord. in units 2 pi/alat)
               b(1) = (  1.0000  0.0000  0.0000 )
               b(2) = (  0.0000  0.9708  0.0000 )
               b(3) = (  0.0000  0.0000  1.4337 )

     Atoms inside the unit cell:

     Cartesian axes

     site n.  atom      mass           positions (alat units)
        1  Ba    137.3270   tau(    1) = (    0.50000    0.51503    0.34876  )
        2  Ba    137.3270   tau(    2) = (    0.00000    0.00000    0.69750  )
        3  B      10.8110   tau(    3) = (    0.60807    0.24487   -0.00000  )
        4  B      10.8110   tau(    4) = (    0.39193    0.78519   -0.00000  )
        5  B      10.8110   tau(    5) = (    0.10807    0.27016    0.34875  )
        6  B      10.8110   tau(    6) = (    0.89193    0.75990    0.34875  )
        7  H       1.0079   tau(    7) = (    0.43098    0.30147   -0.00001  )
        8  H       1.0079   tau(    8) = (    0.56902    0.72859   -0.00001  )
        9  H       1.0079   tau(    9) = (    0.93098    0.21356    0.34876  )
       10  H       1.0079   tau(   10) = (    0.06902    0.81650    0.34876  )
       11  H       1.0079   tau(   11) = (    0.72244    0.39307    0.00001  )
       12  H       1.0079   tau(   12) = (    0.27756    0.63699    0.00001  )
       13  H       1.0079   tau(   13) = (    0.22244    0.12196    0.34874  )
       14  H       1.0079   tau(   14) = (    0.77756    0.90810    0.34874  )
       15  H       1.0079   tau(   15) = (    0.63647    0.14412    0.54419  )
       16  H       1.0079   tau(   16) = (    0.36353    0.88594    0.54419  )
       17  H       1.0079   tau(   17) = (    0.13647    0.37091    0.50206  )
       18  H       1.0079   tau(   18) = (    0.86353    0.65915    0.50206  )
       19  H       1.0079   tau(   19) = (    0.36355    0.88593    0.15331  )
       20  H       1.0079   tau(   20) = (    0.63645    0.14413    0.15331  )
       21  H       1.0079   tau(   21) = (    0.86355    0.65916    0.19544  )
       22  H       1.0079   tau(   22) = (    0.13645    0.37090    0.19544  )

     Computing dynamical matrix for
                    q = (   0.0000000   0.0000000   0.0000000 )

      5 Sym.Ops. (with q -> -q+G )

     G cutoff = 3169.7599  (  22377 G-vectors)     FFT grid: (120,120, 80)
     G cutoff = 1584.8800  (   7915 G-vectors)  smooth grid: ( 80, 90, 60)
     number of k points=    27

     PseudoPot. # 1 for B  read from file:
     /home/mehlhorn/pseudos/b_pbesol_v1.4.uspp.F.UPF
     MD5 check sum: 369b69bef2c3aeed4453bd8b804fd6a8
     Pseudo is Ultrasoft + core correction, Zval =  3.0
     Generated by new atomic code, or converted to UPF format
     Using radial grid of  781 points,  4 beta functions with:
                l(1) =   0
                l(2) =   0
                l(3) =   1
                l(4) =   1
     Q(r) pseudized with  8 coefficients,  rinner =    1.100   1.100   1.100

     PseudoPot. # 2 for Ba read from file:
     /home/mehlhorn/pseudos/Ba.nc.z_10.oncvpsp4.dojo.v4-sp.upf
     MD5 check sum: c10ed334bb677c0554edec7181ce9143
     Pseudo is Norm-conserving + core correction, Zval = 10.0
     Generated using ONCVPSP code by D. R. Hamann
     Using radial grid of 1938 points,  8 beta functions with:
                l(1) =   0
                l(2) =   0
                l(3) =   1
                l(4) =   1
                l(5) =   2
                l(6) =   2
                l(7) =   3
                l(8) =   3

     PseudoPot. # 3 for H  read from file:
     /home/mehlhorn/pseudos/H_ONCV_PBEsol-1.0.upf
     MD5 check sum: 398ef8f67c0a7342c05c87c5e19ea467
     Pseudo is Norm-conserving, Zval =  1.0
     Generated using ONCVPSP code by D. R. Hamann
     Using radial grid of 1180 points,  2 beta functions with:
                l(1) =   0
                l(2) =   0

     Mode symmetry, D_2  (222)  point group:

     Electric field:
     Dielectric constant
     Born effective charges in two ways

     Atomic displacements:
     There are   66 irreducible representations

     Representation     1      1 modes -  To be done

[...]

     Alpha used in Ewald sum =   2.8000

     Electric Fields Calculation

      thresh= 1.000E-02 alpha_mix =  0.700 |ddv_scf|^2 =  5.843E-09

[...]

     End of electric fields calculation

          Dielectric constant in cartesian axis

          (       3.157855200       0.000000000       0.000000000 )
          (       0.000000000       3.218468543       0.000000000 )
          (       0.000000000       0.000000000       3.348124967 )

          Effective charges (d Force / dE) in cartesian axis without acoustic sum rule applied (asr)

           atom    1  Ba    Mean Z*:        2.66059
      Ex  (        2.50446       -0.04277        0.00000 )
      Ey  (        0.28781        2.52285       -0.00000 )
      Ez  (        0.00000        0.00000        2.95447 )
           atom    2  Ba    Mean Z*:        2.66059
      Ex  (        2.50446        0.04277        0.00000 )
      Ey  (       -0.28781        2.52285       -0.00000 )
      Ez  (        0.00000        0.00000        2.95447 )
           atom    3  B     Mean Z*:       -0.13234
      Ex  (       -0.14892        0.03259       -0.00002 )
      Ey  (        0.17488       -0.04583        0.00005 )
      Ez  (        0.00001        0.00003       -0.20226 )
           atom    4  B     Mean Z*:       -0.13234
      Ex  (       -0.14892        0.03259        0.00002 )
      Ey  (        0.17488       -0.04583       -0.00005 )
      Ez  (       -0.00001       -0.00003       -0.20226 )
           atom    5  B     Mean Z*:       -0.13234
      Ex  (       -0.14892       -0.03259        0.00002 )
      Ey  (       -0.17488       -0.04583        0.00005 )
      Ez  (       -0.00001        0.00003       -0.20226 )
           atom    6  B     Mean Z*:       -0.13234
      Ex  (       -0.14892       -0.03259       -0.00002 )
      Ey  (       -0.17488       -0.04583       -0.00005 )
      Ez  (        0.00001       -0.00003       -0.20226 )
           atom    7  H     Mean Z*:       -0.30845
      Ex  (       -0.42630        0.13516       -0.00001 )
      Ey  (        0.14249       -0.25210        0.00001 )
      Ez  (       -0.00002        0.00001       -0.24695 )
           atom    8  H     Mean Z*:       -0.30845
      Ex  (       -0.42630        0.13516        0.00001 )
      Ey  (        0.14249       -0.25210       -0.00001 )
      Ez  (        0.00002       -0.00001       -0.24695 )
           atom    9  H     Mean Z*:       -0.30845
      Ex  (       -0.42630       -0.13516        0.00001 )
      Ey  (       -0.14249       -0.25210        0.00001 )
      Ez  (        0.00002        0.00001       -0.24695 )
           atom   10  H     Mean Z*:       -0.30845
      Ex  (       -0.42630       -0.13516       -0.00001 )
      Ey  (       -0.14249       -0.25210       -0.00001 )
      Ez  (       -0.00002       -0.00001       -0.24695 )
           atom   11  H     Mean Z*:       -0.31485
      Ex  (       -0.27265       -0.04378        0.00000 )
      Ey  (       -0.11298       -0.42851       -0.00004 )
      Ez  (        0.00001       -0.00003       -0.24340 )
           atom   12  H     Mean Z*:       -0.31485
      Ex  (       -0.27265       -0.04378       -0.00000 )
      Ey  (       -0.11298       -0.42851        0.00004 )
      Ez  (       -0.00001        0.00003       -0.24340 )
           atom   13  H     Mean Z*:       -0.31485
      Ex  (       -0.27265        0.04378       -0.00000 )
      Ey  (        0.11298       -0.42851       -0.00004 )
      Ez  (       -0.00001       -0.00003       -0.24340 )
           atom   14  H     Mean Z*:       -0.31485
      Ex  (       -0.27265        0.04378        0.00000 )
      Ey  (        0.11298       -0.42851        0.00004 )
      Ez  (        0.00001        0.00003       -0.24340 )
[...]

[...]

     atomic species   valence    mass     pseudopotential
     B                 3.00    10.81100     B ( 1.00)
     Ba               10.00   137.32700     Ba( 1.00)
     H                 1.00     1.00794     H ( 1.00)

      4 Sym. Ops. (no inversion) found

[...]

     site n.     atom                  positions (alat units)
         1        Ba     tau(   1) = (   0.5000000   0.5150302   0.3487551  )
         2        Ba     tau(   2) = (   0.0000000   0.0000000   0.6974951  )
         3        B      tau(   3) = (   0.6080704   0.2448729  -0.0000024  )
         4        B      tau(   4) = (   0.3919296   0.7851875  -0.0000024  )
         5        B      tau(   5) = (   0.1080704   0.2701573   0.3487524  )
         6        B      tau(   6) = (   0.8919296   0.7599031   0.3487524  )
         7        H      tau(   7) = (   0.4309800   0.3014747  -0.0000091  )
         8        H      tau(   8) = (   0.5690200   0.7285857  -0.0000091  )
         9        H      tau(   9) = (   0.9309800   0.2135555   0.3487592  )
        10        H      tau(  10) = (   0.0690200   0.8165049   0.3487592  )
        11        H      tau(  11) = (   0.7224396   0.3930677   0.0000133  )
        12        H      tau(  12) = (   0.2775604   0.6369927   0.0000133  )
        13        H      tau(  13) = (   0.2224396   0.1219625   0.3487368  )
        14        H      tau(  14) = (   0.7775604   0.9080979   0.3487368  )
        15        H      tau(  15) = (   0.6364723   0.1441236   0.5441941  )
        16        H      tau(  16) = (   0.3635277   0.8859369   0.5441941  )
        17        H      tau(  17) = (   0.1364723   0.3709067   0.5020561  )
        18        H      tau(  18) = (   0.8635277   0.6591538   0.5020561  )
        19        H      tau(  19) = (   0.3635456   0.8859294   0.1533068  )
        20        H      tau(  20) = (   0.6364544   0.1441310   0.1533068  )
        21        H      tau(  21) = (   0.8635456   0.6591612   0.1954432  )
        22        H      tau(  22) = (   0.1364544   0.3708992   0.1954432  )

     number of k points=   250

     Number of k-points >= 100: set verbosity='high' to print them.

     The potential is recalculated from file :
     ./_ph0/pwscf.q_8/pwscf.save/charge-density

     Starting wfcs are   42 atomic wfcs

     Band Structure Calculation
     Davidson diagonalization with overlap

     ethr =  2.08E-11,  avg # of iterations = 22.1

     End of band structure calculation

     Number of k-points >= 100: set verbosity='high' to print the bands.

     highest occupied level (ev):     1.0327

     Writing config to output data dir ./_ph0/pwscf.q_8/pwscf.save/ :
     XML data file

     bravais-lattice index     =            8
     lattice parameter (alat)  =      12.5069  a.u.
     unit-cell volume          =    1405.5657 (a.u.)^3
     number of atoms/cell      =           22
     number of atomic types    =            3
     kinetic-energy cut-off    =     100.0000  Ry
     charge density cut-off    =     800.0000  Ry
     convergence threshold     =      1.0E-14
     beta                      =       0.7000
     number of iterations used =            4
     Exchange-correlation= PBESOL
                           (   1   4  10   8   0   0   0)

     celldm(1)=   12.50685  celldm(2)=    1.03006  celldm(3)=    0.69750
     celldm(4)=    0.00000  celldm(5)=    0.00000  celldm(6)=    0.00000

     crystal axes: (cart. coord. in units of alat)
               a(1) = (  1.0000  0.0000  0.0000 )
               a(2) = (  0.0000  1.0301  0.0000 )
               a(3) = (  0.0000  0.0000  0.6975 )

     reciprocal axes: (cart. coord. in units 2 pi/alat)
               b(1) = (  1.0000  0.0000  0.0000 )
               b(2) = (  0.0000  0.9708  0.0000 )
               b(3) = (  0.0000  0.0000  1.4337 )

     Atoms inside the unit cell:

     Cartesian axes

     site n.  atom      mass           positions (alat units)
        1  Ba    137.3270   tau(    1) = (    0.50000    0.51503    0.34876  )
        2  Ba    137.3270   tau(    2) = (    0.00000    0.00000    0.69750  )
        3  B      10.8110   tau(    3) = (    0.60807    0.24487   -0.00000  )
        4  B      10.8110   tau(    4) = (    0.39193    0.78519   -0.00000  )
        5  B      10.8110   tau(    5) = (    0.10807    0.27016    0.34875  )
        6  B      10.8110   tau(    6) = (    0.89193    0.75990    0.34875  )
        7  H       1.0079   tau(    7) = (    0.43098    0.30147   -0.00001  )
        8  H       1.0079   tau(    8) = (    0.56902    0.72859   -0.00001  )
        9  H       1.0079   tau(    9) = (    0.93098    0.21356    0.34876  )
       10  H       1.0079   tau(   10) = (    0.06902    0.81650    0.34876  )
       11  H       1.0079   tau(   11) = (    0.72244    0.39307    0.00001  )
       12  H       1.0079   tau(   12) = (    0.27756    0.63699    0.00001  )
       13  H       1.0079   tau(   13) = (    0.22244    0.12196    0.34874  )
       14  H       1.0079   tau(   14) = (    0.77756    0.90810    0.34874  )
       15  H       1.0079   tau(   15) = (    0.63647    0.14412    0.54419  )
       16  H       1.0079   tau(   16) = (    0.36353    0.88594    0.54419  )
       17  H       1.0079   tau(   17) = (    0.13647    0.37091    0.50206  )
       18  H       1.0079   tau(   18) = (    0.86353    0.65915    0.50206  )
       19  H       1.0079   tau(   19) = (    0.36355    0.88593    0.15331  )
       20  H       1.0079   tau(   20) = (    0.63645    0.14413    0.15331  )
       21  H       1.0079   tau(   21) = (    0.86355    0.65916    0.19544  )
       22  H       1.0079   tau(   22) = (    0.13645    0.37090    0.19544  )

     Computing dynamical matrix for
                    q = (   0.3333333   0.3236056   0.4778972 )

     No symmetry!

     G cutoff = 3169.7599  (  22377 G-vectors)     FFT grid: (120,120, 80)
     G cutoff = 1584.8800  (   7915 G-vectors)  smooth grid: ( 80, 90, 60)
     number of k points=   250

     PseudoPot. # 1 for B  read from file:
     /home/mehlhorn/pseudos/b_pbesol_v1.4.uspp.F.UPF
     MD5 check sum: 369b69bef2c3aeed4453bd8b804fd6a8
     Pseudo is Ultrasoft + core correction, Zval =  3.0
     Generated by new atomic code, or converted to UPF format
     Using radial grid of  781 points,  4 beta functions with:
                l(1) =   0
                l(2) =   0
                l(3) =   1
                l(4) =   1
     Q(r) pseudized with  8 coefficients,  rinner =    1.100   1.100   1.100

     PseudoPot. # 2 for Ba read from file:
     /home/mehlhorn/pseudos/Ba.nc.z_10.oncvpsp4.dojo.v4-sp.upf
     MD5 check sum: c10ed334bb677c0554edec7181ce9143
     Pseudo is Norm-conserving + core correction, Zval = 10.0
     Generated using ONCVPSP code by D. R. Hamann
     Using radial grid of 1938 points,  8 beta functions with:
                l(1) =   0
                l(2) =   0
                l(3) =   1
                l(4) =   1
                l(5) =   2
                l(6) =   2
                l(7) =   3
                l(8) =   3

     PseudoPot. # 3 for H  read from file:
     /home/mehlhorn/pseudos/H_ONCV_PBEsol-1.0.upf
     MD5 check sum: 398ef8f67c0a7342c05c87c5e19ea467
     Pseudo is Norm-conserving, Zval =  1.0
     Generated using ONCVPSP code by D. R. Hamann
     Using radial grid of 1180 points,  2 beta functions with:
                l(1) =   0
                l(2) =   0

[...]

     Atomic displacements:
     There are   66 irreducible representations

[...]

     Representation    66      1 modes -  To be done

     Alpha used in Ewald sum =   2.8000

[...]

     Representation #  66 mode #  66

     Self-consistent Calculation

[...]

      thresh= 1.180E-08 alpha_mix =  0.700 |ddv_scf|^2 =  1.190E-15

     End of self-consistent calculation

     Convergence has been achieved

     Number of q in the star =    4
     List of q in the star:
          1   0.333333333   0.323605610   0.477897177
          2   0.333333333  -0.323605610  -0.477897177
          3  -0.333333333   0.323605610  -0.477897177
          4  -0.333333333  -0.323605610   0.477897177
     In addition there is the -q list:
          1  -0.333333333  -0.323605610  -0.477897177
          2  -0.333333333   0.323605610   0.477897177
          3   0.333333333  -0.323605610   0.477897177
          4   0.333333333   0.323605610  -0.477897177

     Diagonalizing the dynamical matrix

     q = (    0.333333333   0.323605610   0.477897177 )

     freq (    1) =       1.248723 [THz] =      41.652921 [cm-1]
     freq (    2) =       1.310168 [THz] =      43.702517 [cm-1]
     freq (    3) =       1.812895 [THz] =      60.471671 [cm-1]
     freq (    4) =       2.051229 [THz] =      68.421634 [cm-1]
     freq (    5) =       2.936734 [THz] =      97.958906 [cm-1]
     freq (    6) =       3.040554 [THz] =     101.421951 [cm-1]
     freq (    7) =       4.996582 [THz] =     166.668030 [cm-1]
     freq (    8) =       5.116416 [THz] =     170.665268 [cm-1]
     freq (    9) =       5.864039 [THz] =     195.603275 [cm-1]
     freq (   10) =       6.138140 [THz] =     204.746324 [cm-1]
     freq (   11) =       6.552683 [THz] =     218.573966 [cm-1]
     freq (   12) =       6.558663 [THz] =     218.773446 [cm-1]
     freq (   13) =       6.831877 [THz] =     227.886891 [cm-1]
     freq (   14) =       7.185226 [THz] =     239.673328 [cm-1]
     freq (   15) =       7.663441 [THz] =     255.624881 [cm-1]
     freq (   16) =       7.753380 [THz] =     258.624909 [cm-1]
     freq (   17) =       8.715954 [THz] =     290.732914 [cm-1]
     freq (   18) =       8.731990 [THz] =     291.267827 [cm-1]
     freq (   19) =       9.052108 [THz] =     301.945819 [cm-1]
     freq (   20) =       9.101785 [THz] =     303.602854 [cm-1]
     freq (   21) =       9.803648 [THz] =     327.014510 [cm-1]
     freq (   22) =      10.050690 [THz] =     335.254934 [cm-1]
     freq (   23) =      10.291772 [THz] =     343.296572 [cm-1]
     freq (   24) =      10.326107 [THz] =     344.441865 [cm-1]
     freq (   25) =      10.849615 [THz] =     361.904203 [cm-1]
     freq (   26) =      10.962687 [THz] =     365.675875 [cm-1]
     freq (   27) =      13.547697 [THz] =     451.902531 [cm-1]
     freq (   28) =      13.608503 [THz] =     453.930799 [cm-1]
     freq (   29) =      13.656191 [THz] =     455.521500 [cm-1]
     freq (   30) =      13.758744 [THz] =     458.942305 [cm-1]
     freq (   31) =      30.862209 [THz] =    1029.452468 [cm-1]
     freq (   32) =      30.881736 [THz] =    1030.103823 [cm-1]
     freq (   33) =      31.056420 [THz] =    1035.930677 [cm-1]
     freq (   34) =      31.080548 [THz] =    1036.735485 [cm-1]
     freq (   35) =      31.982324 [THz] =    1066.815502 [cm-1]
     freq (   36) =      32.004244 [THz] =    1067.546685 [cm-1]
     freq (   37) =      32.039691 [THz] =    1068.729052 [cm-1]
     freq (   38) =      32.091428 [THz] =    1070.454818 [cm-1]
     freq (   39) =      32.337954 [THz] =    1078.678034 [cm-1]
     freq (   40) =      32.366303 [THz] =    1079.623658 [cm-1]
     freq (   41) =      32.484548 [THz] =    1083.567873 [cm-1]
     freq (   42) =      32.534488 [THz] =    1085.233692 [cm-1]
     freq (   43) =      35.871872 [THz] =    1196.556849 [cm-1]
     freq (   44) =      35.905256 [THz] =    1197.670432 [cm-1]
     freq (   45) =      36.093793 [THz] =    1203.959333 [cm-1]
     freq (   46) =      36.132043 [THz] =    1205.235221 [cm-1]
     freq (   47) =      36.185602 [THz] =    1207.021742 [cm-1]
     freq (   48) =      36.205810 [THz] =    1207.695814 [cm-1]
     freq (   49) =      36.290194 [THz] =    1210.510576 [cm-1]
     freq (   50) =      36.309957 [THz] =    1211.169786 [cm-1]
     freq (   51) =      68.231411 [THz] =    2275.954895 [cm-1]
     freq (   52) =      68.252744 [THz] =    2276.666468 [cm-1]
     freq (   53) =      68.284244 [THz] =    2277.717216 [cm-1]
     freq (   54) =      68.327702 [THz] =    2279.166813 [cm-1]
     freq (   55) =      70.230307 [THz] =    2342.630896 [cm-1]
     freq (   56) =      70.236407 [THz] =    2342.834340 [cm-1]
     freq (   57) =      70.372405 [THz] =    2347.370747 [cm-1]
     freq (   58) =      70.376609 [THz] =    2347.510996 [cm-1]
     freq (   59) =      71.061507 [THz] =    2370.356735 [cm-1]
     freq (   60) =      71.071227 [THz] =    2370.680956 [cm-1]
     freq (   61) =      71.150692 [THz] =    2373.331612 [cm-1]
     freq (   62) =      71.174799 [THz] =    2374.135750 [cm-1]
     freq (   63) =      71.601503 [THz] =    2388.369043 [cm-1]
     freq (   64) =      71.617903 [THz] =    2388.916102 [cm-1]
     freq (   65) =      71.737606 [THz] =    2392.908964 [cm-1]
     freq (   66) =      71.775130 [THz] =    2394.160640 [cm-1]

     Mode symmetry, C_1 (1)     point group:

     freq (   1-   1) =         41.7  [cm-1]   --> A
     freq (   2-   2) =         43.7  [cm-1]   --> A
     freq (   3-   3) =         60.5  [cm-1]   --> A
     freq (   4-   4) =         68.4  [cm-1]   --> A
     freq (   5-   5) =         98.0  [cm-1]   --> A
     freq (   6-   6) =        101.4  [cm-1]   --> A
     freq (   7-   7) =        166.7  [cm-1]   --> A
     freq (   8-   8) =        170.7  [cm-1]   --> A
     freq (   9-   9) =        195.6  [cm-1]   --> A
     freq (  10-  10) =        204.7  [cm-1]   --> A
     freq (  11-  11) =        218.6  [cm-1]   --> A
     freq (  12-  12) =        218.8  [cm-1]   --> A
     freq (  13-  13) =        227.9  [cm-1]   --> A
     freq (  14-  14) =        239.7  [cm-1]   --> A
     freq (  15-  15) =        255.6  [cm-1]   --> A
     freq (  16-  16) =        258.6  [cm-1]   --> A
     freq (  17-  17) =        290.7  [cm-1]   --> A
     freq (  18-  18) =        291.3  [cm-1]   --> A
     freq (  19-  19) =        301.9  [cm-1]   --> A
     freq (  20-  20) =        303.6  [cm-1]   --> A
     freq (  21-  21) =        327.0  [cm-1]   --> A
     freq (  22-  22) =        335.3  [cm-1]   --> A
     freq (  23-  23) =        343.3  [cm-1]   --> A
     freq (  24-  24) =        344.4  [cm-1]   --> A
     freq (  25-  25) =        361.9  [cm-1]   --> A
     freq (  26-  26) =        365.7  [cm-1]   --> A
     freq (  27-  27) =        451.9  [cm-1]   --> A
     freq (  28-  28) =        453.9  [cm-1]   --> A
     freq (  29-  29) =        455.5  [cm-1]   --> A
     freq (  30-  30) =        458.9  [cm-1]   --> A
     freq (  31-  31) =       1029.5  [cm-1]   --> A
     freq (  32-  32) =       1030.1  [cm-1]   --> A
     freq (  33-  33) =       1035.9  [cm-1]   --> A
     freq (  34-  34) =       1036.7  [cm-1]   --> A
     freq (  35-  35) =       1066.8  [cm-1]   --> A
     freq (  36-  36) =       1067.5  [cm-1]   --> A
     freq (  37-  37) =       1068.7  [cm-1]   --> A
     freq (  38-  38) =       1070.5  [cm-1]   --> A
     freq (  39-  39) =       1078.7  [cm-1]   --> A
     freq (  40-  40) =       1079.6  [cm-1]   --> A
     freq (  41-  41) =       1083.6  [cm-1]   --> A
     freq (  42-  42) =       1085.2  [cm-1]   --> A
     freq (  43-  43) =       1196.6  [cm-1]   --> A
     freq (  44-  44) =       1197.7  [cm-1]   --> A
     freq (  45-  45) =       1204.0  [cm-1]   --> A
     freq (  46-  46) =       1205.2  [cm-1]   --> A
     freq (  47-  47) =       1207.0  [cm-1]   --> A
     freq (  48-  48) =       1207.7  [cm-1]   --> A
     freq (  49-  49) =       1210.5  [cm-1]   --> A
     freq (  50-  50) =       1211.2  [cm-1]   --> A
     freq (  51-  51) =       2276.0  [cm-1]   --> A
     freq (  52-  52) =       2276.7  [cm-1]   --> A
     freq (  53-  53) =       2277.7  [cm-1]   --> A
     freq (  54-  54) =       2279.2  [cm-1]   --> A
     freq (  55-  55) =       2342.6  [cm-1]   --> A
     freq (  56-  56) =       2342.8  [cm-1]   --> A
     freq (  57-  57) =       2347.4  [cm-1]   --> A
     freq (  58-  58) =       2347.5  [cm-1]   --> A
     freq (  59-  59) =       2370.4  [cm-1]   --> A
     freq (  60-  60) =       2370.7  [cm-1]   --> A
     freq (  61-  61) =       2373.3  [cm-1]   --> A
     freq (  62-  62) =       2374.1  [cm-1]   --> A
     freq (  63-  63) =       2388.4  [cm-1]   --> A
     freq (  64-  64) =       2388.9  [cm-1]   --> A
     freq (  65-  65) =       2392.9  [cm-1]   --> A
     freq (  66-  66) =       2394.2  [cm-1]   --> A

     General routines

     Parallel routines

     INITIALIZATION:

     DYNAMICAL MATRIX:

                                        0.00s GPU  (  341872 calls)

                                        0.00s GPU  (   49434 calls)

      General routines

      Additional routines
                                        0.00s GPU  ( 5565929 calls)
                                        0.00s GPU  ( 5565929 calls)

   This run was terminated on:   6: 1:38  23Jul2024

   JOB DONE.