     Program PWSCF v.7.3.1 starts on 11Jul2024 at 15:30:39

     Waiting for input...
     Reading input from standard input

     Current dimensions of program PWSCF are:
     Max number of different atomic species (ntypx) = 10
     Max number of k-points (npk) =  40000
     Max angular momentum in pseudopotentials (lmaxx) =  4

     R & G space division:  proc/nbgrp/npool/nimage =      24
     Subspace diagonalization in iterative solution of the eigenvalue problem:
     a serial algorithm will be used

     Using Slab Decomposition

     Title:
     volume variation

     bravais-lattice index     =            8
     lattice parameter (alat)  =      12.5558  a.u.
     unit-cell volume          =    1405.5657 (a.u.)^3
     number of atoms/cell      =           22
     number of atomic types    =            3
     number of electrons       =        48.00
     number of Kohn-Sham states=           24
     kinetic-energy cutoff     =     100.0000  Ry
     charge density cutoff     =     800.0000  Ry
     scf convergence threshold =      1.0E-10
     mixing beta               =       0.7000
     number of iterations used =            8  plain     mixing
     energy convergence thresh.=      1.0E-05
     force convergence thresh. =      1.0E-05
     press convergence thresh. =      5.0E-01
     Exchange-correlation= PBESOL
                           (   1   4  10   8   0   0   0)
     nstep                     =          100

     celldm(1)=  12.555789  celldm(2)=   1.025571  celldm(3)=   0.692394
     celldm(4)=   0.000000  celldm(5)=   0.000000  celldm(6)=   0.000000

     crystal axes: (cart. coord. in units of alat)
               a(1) = (   1.000000   0.000000   0.000000 )
               a(2) = (   0.000000   1.025571   0.000000 )
               a(3) = (   0.000000   0.000000   0.692394 )

     reciprocal axes: (cart. coord. in units 2 pi/alat)
               b(1) = (  1.000000  0.000000  0.000000 )
               b(2) = (  0.000000  0.975067  0.000000 )
               b(3) = (  0.000000  0.000000  1.444264 )

     PseudoPot. # 1 for B  read from file:
     /home/mehlhorn/pseudos/b_pbesol_v1.4.uspp.F.UPF
     MD5 check sum: 369b69bef2c3aeed4453bd8b804fd6a8
     Pseudo is Ultrasoft + core correction, Zval =  3.0
     Generated by new atomic code, or converted to UPF format
     Using radial grid of  781 points,  4 beta functions with:
                l(1) =   0
                l(2) =   0
                l(3) =   1
                l(4) =   1
     Q(r) pseudized with  8 coefficients,  rinner =    1.100   1.100   1.100

     PseudoPot. # 2 for Ba read from file:
     /home/mehlhorn/pseudos/Ba.nc.z_10.oncvpsp4.dojo.v4-sp.upf
     MD5 check sum: c10ed334bb677c0554edec7181ce9143
     Pseudo is Norm-conserving + core correction, Zval = 10.0
     Generated using ONCVPSP code by D. R. Hamann
     Using radial grid of 1938 points,  8 beta functions with:
                l(1) =   0
                l(2) =   0
                l(3) =   1
                l(4) =   1
                l(5) =   2
                l(6) =   2
                l(7) =   3
                l(8) =   3

     PseudoPot. # 3 for H  read from file:
     /home/mehlhorn/pseudos/H_ONCV_PBEsol-1.0.upf
     MD5 check sum: 398ef8f67c0a7342c05c87c5e19ea467
     Pseudo is Norm-conserving, Zval =  1.0
     Generated using ONCVPSP code by D. R. Hamann
     Using radial grid of 1180 points,  2 beta functions with:
                l(1) =   0
                l(2) =   0

     atomic species   valence    mass     pseudopotential
     B                 3.00    10.81100     B ( 1.00)
     Ba               10.00   137.32700     Ba( 1.00)
     H                 1.00     1.00794     H ( 1.00)

      4 Sym. Ops. (no inversion) found ( 2 have fractional translation)

   Cartesian axes

     site n.     atom                  positions (alat units)
         1        Ba     tau(   1) = (   0.5000000   0.5127855   0.3462657  )
         2        Ba     tau(   2) = (   0.0000000   0.0000000   0.6923255  )
         3        B      tau(   3) = (   0.6102570   0.2453190   0.0000455  )
         4        B      tau(   4) = (   0.3897430   0.7802519   0.0000455  )
         5        B      tau(   5) = (   0.1102570   0.2674665   0.3461516  )
         6        B      tau(   6) = (   0.8897430   0.7581045   0.3461516  )
         7        H      tau(   7) = (   0.4340973   0.2996264   0.0001599  )
         8        H      tau(   8) = (   0.5659027   0.7259445   0.0001599  )
         9        H      tau(   9) = (   0.9340973   0.2131590   0.3460372  )
        10        H      tau(  10) = (   0.0659027   0.8124119   0.3460372  )
        11        H      tau(  11) = (   0.7220603   0.3933629  -0.0000058  )
        12        H      tau(  12) = (   0.2779397   0.6322081  -0.0000058  )
        13        H      tau(  13) = (   0.2220603   0.1194226   0.3462029  )
        14        H      tau(  14) = (   0.7779397   0.9061483   0.3462029  )
        15        H      tau(  15) = (   0.6392499   0.1457279   0.5404125  )
        16        H      tau(  16) = (   0.3607501   0.8798430   0.5404125  )
        17        H      tau(  17) = (   0.1392499   0.3670576   0.4981787  )
        18        H      tau(  18) = (   0.8607501   0.6585133   0.4981787  )
        19        H      tau(  19) = (   0.3605328   0.8798946   0.1519977  )
        20        H      tau(  20) = (   0.6394672   0.1456763   0.1519977  )
        21        H      tau(  21) = (   0.8605328   0.6584617   0.1941994  )
        22        H      tau(  22) = (   0.1394672   0.3671092   0.1941994  )

     number of k points=    27
                       cart. coord. in units 2pi/alat
        k(    1) = (   0.0000000   0.0000000   0.0000000), wk =   0.0312500
        k(    2) = (   0.0000000   0.0000000   0.3610660), wk =   0.0625000
        k(    3) = (   0.0000000   0.0000000  -0.7221320), wk =   0.0312500
        k(    4) = (   0.0000000   0.2437667   0.0000000), wk =   0.0625000
        k(    5) = (   0.0000000   0.2437667   0.3610660), wk =   0.1250000
        k(    6) = (   0.0000000   0.2437667  -0.7221320), wk =   0.0625000
        k(    7) = (   0.0000000  -0.4875333   0.0000000), wk =   0.0312500
        k(    8) = (   0.0000000  -0.4875333   0.3610660), wk =   0.0625000
        k(    9) = (   0.0000000  -0.4875333  -0.7221320), wk =   0.0312500
        k(   10) = (   0.2500000   0.0000000   0.0000000), wk =   0.0625000
        k(   11) = (   0.2500000   0.0000000   0.3610660), wk =   0.1250000
        k(   12) = (   0.2500000   0.0000000  -0.7221320), wk =   0.0625000
        k(   13) = (   0.2500000   0.2437667   0.0000000), wk =   0.1250000
        k(   14) = (   0.2500000   0.2437667   0.3610660), wk =   0.2500000
        k(   15) = (   0.2500000   0.2437667  -0.7221320), wk =   0.1250000
        k(   16) = (   0.2500000  -0.4875333   0.0000000), wk =   0.0625000
        k(   17) = (   0.2500000  -0.4875333   0.3610660), wk =   0.1250000
        k(   18) = (   0.2500000  -0.4875333  -0.7221320), wk =   0.0625000
        k(   19) = (  -0.5000000   0.0000000   0.0000000), wk =   0.0312500
        k(   20) = (  -0.5000000   0.0000000   0.3610660), wk =   0.0625000
        k(   21) = (  -0.5000000   0.0000000  -0.7221320), wk =   0.0312500
        k(   22) = (  -0.5000000   0.2437667   0.0000000), wk =   0.0625000
        k(   23) = (  -0.5000000   0.2437667   0.3610660), wk =   0.1250000
        k(   24) = (  -0.5000000   0.2437667  -0.7221320), wk =   0.0625000
        k(   25) = (  -0.5000000  -0.4875333   0.0000000), wk =   0.0312500
        k(   26) = (  -0.5000000  -0.4875333   0.3610660), wk =   0.0625000
        k(   27) = (  -0.5000000  -0.4875333  -0.7221320), wk =   0.0312500

     Initial potential from superposition of free atoms

     starting charge      47.9682, renormalised to      48.0000
     Starting wfcs are   42 randomized atomic wfcs

     Self-consistent Calculation

     iteration #  1     ecut=   100.00 Ry     beta= 0.70
     Davidson diagonalization with overlap
     ethr =  1.00E-02,  avg # of iterations =  2.0

     total energy              =    -155.91772831 Ry
     estimated scf accuracy    <       2.12201333 Ry

[...]

     End of self-consistent calculation

          k = 0.0000 0.0000 0.0000 ( 23753 PWs)   bands (ev):

   -23.6245 -23.6140  -9.2316  -9.1312  -8.9089  -8.8642  -8.8364  -8.7641
    -5.9401  -4.9573  -4.1996  -4.0594  -1.6296  -0.7013  -0.5974  -0.2689
     0.1264   0.1546   0.2129   0.3202   0.4944   0.9215   0.9330   0.9763

[...]

          k =-0.5000 0.0000 0.0000 ( 23768 PWs)   bands (ev):

[...]

     highest occupied level (ev):     0.9852

!    total energy              =    -156.47416959 Ry
     estimated scf accuracy    <          3.6E-11 Ry

     The total energy is the sum of the following terms:
     one-electron contribution =     -20.63619328 Ry
     hartree contribution      =      25.08177170 Ry
     xc contribution           =     -49.22291817 Ry
     ewald contribution        =    -111.69682985 Ry

     convergence has been achieved in  11 iterations

     Forces acting on atoms (cartesian axes, Ry/au):

     atom    1 type  2   force =     0.00000000    0.00000000    0.00001403
     atom    2 type  2   force =     0.00000000    0.00000000   -0.00001403
     atom    3 type  1   force =    -0.00010266   -0.00049567   -0.00001200
     atom    4 type  1   force =     0.00010266    0.00049567   -0.00001200
     atom    5 type  1   force =    -0.00010266    0.00049567    0.00001200
     atom    6 type  1   force =     0.00010266   -0.00049567    0.00001200
     atom    7 type  3   force =    -0.00413082    0.00103886   -0.00001528
     atom    8 type  3   force =     0.00413082   -0.00103886   -0.00001528
     atom    9 type  3   force =    -0.00413082   -0.00103886    0.00001528
     atom   10 type  3   force =     0.00413082    0.00103886    0.00001528
     atom   11 type  3   force =     0.00272547    0.00329635    0.00000492
     atom   12 type  3   force =    -0.00272547   -0.00329635    0.00000492
     atom   13 type  3   force =     0.00272547   -0.00329635   -0.00000492
     atom   14 type  3   force =    -0.00272547    0.00329635   -0.00000492
     atom   15 type  3   force =     0.00053131   -0.00243408   -0.00368637
     atom   16 type  3   force =    -0.00053131    0.00243408   -0.00368637
     atom   17 type  3   force =     0.00053131    0.00243408    0.00368637
     atom   18 type  3   force =    -0.00053131   -0.00243408    0.00368637
     atom   19 type  3   force =    -0.00048794    0.00241469    0.00367549
     atom   20 type  3   force =     0.00048794   -0.00241469    0.00367549
     atom   21 type  3   force =    -0.00048794   -0.00241469   -0.00367549
     atom   22 type  3   force =     0.00048794    0.00241469   -0.00367549

     Total force =     0.017443     Total SCF correction =     0.000003

     Computing stress (Cartesian axis) and pressure

          total   stress  (Ry/bohr**3)                   (kbar)     P=        9.47
   0.00005981   0.00000000   0.00000000            8.80        0.00        0.00
   0.00000000   0.00006103   0.00000000            0.00        8.98        0.00
   0.00000000   0.00000000   0.00007237            0.00        0.00       10.65

     Volume is kept fixed: isostatic pressure set to zero

     BFGS Geometry Optimization
     Energy error            =      0.0E+00 Ry
     Gradient error          =      4.1E-03 Ry/Bohr
     Cell gradient error     =      1.2E+00 kbar

     number of scf cycles    =   1
     number of bfgs steps    =   0

     enthalpy           new  =    -156.4741695895 Ry

     new trust radius        =       0.0044493131 bohr
ibrav =      8
 celldm(1) =     12.55434651
 celldm(2) =      1.02560231
 celldm(3) =      0.69261172
Input lattice vectors:
     0.99988508     0.00000000     0.00000000
     0.00000000     1.02548445     0.00000000
     0.00000000     0.00000000     0.69253213
New lattice vectors in INITIAL alat:
     0.99988508     0.00000000     0.00000000
     0.00000000     1.02548445     0.00000000
     0.00000000     0.00000000     0.69253213
New lattice vectors in NEW alat (for information only):
     1.00000000     0.00000000     0.00000000
     0.00000000     1.02560231     0.00000000
     0.00000000     0.00000000     0.69261172
Discrepancy in bohr =     0.000000    0.000000    0.000000
     new conv_thr            =            1.0E-10 Ry

     new unit-cell volume =   1405.56573 a.u.^3 (   208.28335 Ang^3 )
     density =      2.66301 g/cm^3

CELL_PARAMETERS (alat= 12.55578938)
   0.999885083   0.000000000   0.000000000
   0.000000000   1.025484448   0.000000000
   0.000000000   0.000000000   0.692532130

ATOMIC_POSITIONS (crystal)
Ba               0.5000000000        0.5000000000        0.5001007794
Ba               0.0000000000        0.0000000000        0.9998992206
B                0.6102488400        0.2391638868        0.0000642768
B                0.3897511600        0.7608361132        0.0000642768
B                0.1102488400        0.2608361132        0.4999357232
B                0.8897511600        0.7391638868        0.4999357232
H                0.4337682554        0.2922364054        0.0002291755
H                0.5662317446        0.7077635946        0.0002291755
H                0.9337682554        0.2077635946        0.4997708245
H                0.0662317446        0.7922364054        0.4997708245
H                0.7222773368        0.3838109998       -0.0000078052
H                0.2777226632        0.6161890002       -0.0000078052
H                0.2222773368        0.1161890002        0.5000078052
H                0.7777226632        0.8838109998        0.5000078052
H                0.6392922408        0.1419053674        0.7800743787
H                0.3607077592        0.8580946326        0.7800743787
H                0.1392922408        0.3580946326        0.7199256213
H                0.8607077592        0.6419053674        0.7199256213
H                0.3604939687        0.8581434363        0.2199476311
H                0.6395060313        0.1418565637        0.2199476311
H                0.8604939687        0.6418565637        0.2800523689
H                0.1395060313        0.3581434363        0.2800523689

     Writing config-only to output data dir ./pwscf.save/ :
     XML data file
     NEW-OLD atomic charge density approx. for the potential

[...]

     Volume is kept fixed: isostatic pressure set to zero
     Energy error            =      2.5E-04 Ry
     Gradient error          =      2.5E-03 Ry/Bohr
     Cell gradient error     =      9.1E-01 kbar

[...]

     enthalpy           old  =    -156.4741695895 Ry
     enthalpy           new  =    -156.4744150278 Ry

     CASE: enthalpy          _new < enthalpy          _old

[...]

     Threshold (ethr) on eigenvalues was too large:
     Diagonalizing with lowered threshold

     Davidson diagonalization with overlap
     ethr =  1.87E-08,  avg # of iterations =  2.0

[...]

     WARNING: bfgs curvature condition failed, Theta= 0.939
     new trust radius        =       0.0009576534 bohr
ibrav =      8
 celldm(1) =     12.54956816
 celldm(2) =      1.02563110
 celldm(3) =      0.69338371
Input lattice vectors:
     0.99950451     0.00000000     0.00000000
     0.00000000     1.02512291     0.00000000
     0.00000000     0.00000000     0.69304015
New lattice vectors in INITIAL alat:
     0.99950451     0.00000000     0.00000000
     0.00000000     1.02512291     0.00000000
     0.00000000     0.00000000     0.69304015
New lattice vectors in NEW alat (for information only):
     1.00000000     0.00000000     0.00000000
     0.00000000     1.02563110     0.00000000
     0.00000000     0.00000000     0.69338371
Discrepancy in bohr =     0.000000    0.000000    0.000000
     new conv_thr            =            1.0E-12 Ry

[...]

     small trust_radius: resetting bfgs history

[...]

     Volume is kept fixed: isostatic pressure set to zero
     Energy error            =      2.6E-09 Ry
     Gradient error          =      1.2E-05 Ry/Bohr
     Cell gradient error     =      8.2E-04 kbar

     number of scf cycles    =  55
     number of bfgs steps    =  54

     enthalpy           old  =    -156.4746545230 Ry
     enthalpy           new  =    -156.4746545257 Ry

     CASE: enthalpy          _new < enthalpy          _old

     WARNING: bfgs curvature condition failed, Theta= 0.932
     Message from routine bfgs :: compute_trust_radius:
     history already reset at previous step: stopping
     small trust_radius: resetting bfgs history

     new trust radius        =       0.0000122165 bohr
ibrav =      8
 celldm(1) =     12.50685340
 celldm(2) =      1.03006043
 celldm(3) =      0.69750011
Input lattice vectors:
     0.99610252     0.00000000     0.00000000
     0.00000000     1.02604578     0.00000000
     0.00000000     0.00000000     0.69478162
New lattice vectors in INITIAL alat:
     0.99610252     0.00000000     0.00000000
     0.00000000     1.02604578     0.00000000
     0.00000000     0.00000000     0.69478162
New lattice vectors in NEW alat (for information only):
     1.00000000     0.00000000     0.00000000
     0.00000000     1.03006043     0.00000000
     0.00000000     0.00000000     0.69750011
Discrepancy in bohr =     0.000000    0.000000    0.000000
     new conv_thr            =            1.0E-12 Ry

     new unit-cell volume =   1405.56573 a.u.^3 (   208.28335 Ang^3 )
     density =      2.66301 g/cm^3

[...]

ATOMIC_POSITIONS (crystal)
Ba               0.5000000000        0.5000000000        0.5000072491
Ba               0.0000000000        0.0000000000        0.9999927509
B                0.6080704341        0.2377267575       -0.0000033954
B                0.3919295659        0.7622732425       -0.0000033954
B                0.1080704341        0.2622732425        0.5000033954
B                0.8919295659        0.7377267575        0.5000033954
H                0.4309799568        0.2926767221       -0.0000130980
H                0.5690200432        0.7073232779       -0.0000130980
H                0.9309799568        0.2073232779        0.5000130980
H                0.0690200432        0.7926767221        0.5000130980
H                0.7224395821        0.3815967418        0.0000190601
H                0.2775604179        0.6184032582        0.0000190601
H                0.2224395821        0.1184032582        0.4999809399
H                0.7775604179        0.8815967418        0.4999809399
H                0.6364722775        0.1399175800        0.7802064645
H                0.3635277225        0.8600824200        0.7802064645
H                0.1364722775        0.3600824200        0.7197935355
H                0.8635277225        0.6399175800        0.7197935355
H                0.3635455963        0.8600751937        0.2197946732
H                0.6364544037        0.1399248063        0.2197946732
H                0.8635455963        0.6399248063        0.2802053268
H                0.1364544037        0.3600751937        0.2802053268

     Writing config-only to output data dir ./pwscf.save/ :
     XML data file
     NEW-OLD atomic charge density approx. for the potential

     Self-consistent Calculation

[...]

     Threshold (ethr) on eigenvalues was too large:
     Diagonalizing with lowered threshold

     Davidson diagonalization with overlap
     ethr =  2.77E-13,  avg # of iterations =  4.3

[...]

     total energy              =    -156.47465453 Ry
     estimated scf accuracy    <          1.6E-12 Ry

     iteration #  3     ecut=   100.00 Ry     beta= 0.70
     Davidson diagonalization with overlap
     ethr =  1.00E-13,  avg # of iterations =  1.0

     End of self-consistent calculation

[...]

          k = 0.2510-0.4873-0.7197 ( 23732 PWs)   bands (ev):

[...]

          k =-0.5020-0.4873-0.7197 ( 23752 PWs)   bands (ev):

   -23.6082 -23.6082  -9.3410  -9.3410  -8.9801  -8.9801  -8.9070  -8.9070
    -4.7967  -4.7967  -4.2656  -4.2656  -1.4121  -1.4121  -0.6887  -0.6887
     0.4297   0.4297   0.4398   0.4398   0.6226   0.6226   0.8550   0.8550

     highest occupied level (ev):     1.0293

!    total energy              =    -156.47465453 Ry
     estimated scf accuracy    <          4.0E-14 Ry

     The total energy is the sum of the following terms:
     one-electron contribution =     -19.95570065 Ry
     hartree contribution      =      24.74294405 Ry
     xc contribution           =     -49.17175024 Ry
     ewald contribution        =    -112.09014769 Ry

     convergence has been achieved in   3 iterations

     Forces acting on atoms (cartesian axes, Ry/au):

     atom    1 type  2   force =     0.00000000    0.00000000   -0.00001036
     atom    2 type  2   force =     0.00000000    0.00000000    0.00001036
     atom    3 type  1   force =     0.00000143    0.00000110    0.00000661
     atom    4 type  1   force =    -0.00000143   -0.00000110    0.00000661
     atom    5 type  1   force =     0.00000143   -0.00000110   -0.00000661
     atom    6 type  1   force =    -0.00000143    0.00000110   -0.00000661
     atom    7 type  3   force =     0.00000066   -0.00000298   -0.00000017
     atom    8 type  3   force =    -0.00000066    0.00000298   -0.00000017
     atom    9 type  3   force =     0.00000066    0.00000298    0.00000017
     atom   10 type  3   force =    -0.00000066   -0.00000298    0.00000017
     atom   11 type  3   force =     0.00000281    0.00000064   -0.00001026
     atom   12 type  3   force =    -0.00000281   -0.00000064   -0.00001026
     atom   13 type  3   force =     0.00000281   -0.00000064    0.00001026
     atom   14 type  3   force =    -0.00000281    0.00000064    0.00001026
     atom   15 type  3   force =    -0.00000356    0.00000820    0.00000361
     atom   16 type  3   force =     0.00000356   -0.00000820    0.00000361
     atom   17 type  3   force =    -0.00000356   -0.00000820   -0.00000361
     atom   18 type  3   force =     0.00000356    0.00000820   -0.00000361
     atom   19 type  3   force =     0.00000042    0.00000745    0.00000384
     atom   20 type  3   force =    -0.00000042   -0.00000745    0.00000384
     atom   21 type  3   force =     0.00000042   -0.00000745   -0.00000384
     atom   22 type  3   force =    -0.00000042    0.00000745   -0.00000384

     Total force =     0.000039     Total SCF correction =     0.000000

     Computing stress (Cartesian axis) and pressure

          total   stress  (Ry/bohr**3)                   (kbar)     P=        2.78
   0.00001891   0.00000000   0.00000000            2.78        0.00        0.00
   0.00000000   0.00001890   0.00000000            0.00        2.78        0.00
   0.00000000   0.00000000   0.00001890            0.00        0.00        2.78

     Volume is kept fixed: isostatic pressure set to zero
     Message from routine bfgs:
     history already reset at previous step: exiting
     Energy error            =      2.0E-09 Ry
     Gradient error          =      1.0E-05 Ry/Bohr
     Cell gradient error     =      6.4E-04 kbar
ibrav =      8
 celldm(1) =     12.50685340
 celldm(2) =      1.03006043
 celldm(3) =      0.69750011
Input lattice vectors:
     0.99610252     0.00000000     0.00000000
     0.00000000     1.02604578     0.00000000
     0.00000000     0.00000000     0.69478162
New lattice vectors in INITIAL alat:
     0.99610252     0.00000000     0.00000000
     0.00000000     1.02604578     0.00000000
     0.00000000     0.00000000     0.69478162
New lattice vectors in NEW alat (for information only):
     1.00000000     0.00000000     0.00000000
     0.00000000     1.03006043     0.00000000
     0.00000000     0.00000000     0.69750011
Discrepancy in bohr =     0.000000    0.000000    0.000000

     bfgs failed after  56 scf cycles and  55 bfgs steps, convergence not achieved
     (criteria: energy <  1.0E-05 Ry, force <  1.0E-05 Ry/Bohr, cell <  5.0E-01 kbar)

     End of BFGS Geometry Optimization

     Final enthalpy           =    -156.4746545276 Ry

     File ./pwscf.bfgs deleted, as requested
Begin final coordinates
     new unit-cell volume =   1405.56573 a.u.^3 (   208.28335 Ang^3 )
     density =      2.66301 g/cm^3

CELL_PARAMETERS (alat= 12.55578938)
   0.996102516   0.000000000   0.000000000
   0.000000000   1.026045782   0.000000000
   0.000000000   0.000000000   0.694781617

ATOMIC_POSITIONS (crystal)
Ba               0.5000000000        0.5000000000        0.5000072491
Ba               0.0000000000        0.0000000000        0.9999927509
B                0.6080704341        0.2377267575       -0.0000033954
B                0.3919295659        0.7622732425       -0.0000033954
B                0.1080704341        0.2622732425        0.5000033954
B                0.8919295659        0.7377267575        0.5000033954
H                0.4309799568        0.2926767221       -0.0000130980
H                0.5690200432        0.7073232779       -0.0000130980
H                0.9309799568        0.2073232779        0.5000130980
H                0.0690200432        0.7926767221        0.5000130980
H                0.7224395821        0.3815967418        0.0000190601
H                0.2775604179        0.6184032582        0.0000190601
H                0.2224395821        0.1184032582        0.4999809399
H                0.7775604179        0.8815967418        0.4999809399
H                0.6364722775        0.1399175800        0.7802064645
H                0.3635277225        0.8600824200        0.7802064645
H                0.1364722775        0.3600824200        0.7197935355
H                0.8635277225        0.6399175800        0.7197935355
H                0.3635455963        0.8600751937        0.2197946732
H                0.6364544037        0.1399248063        0.2197946732
H                0.8635455963        0.6399248063        0.2802053268
H                0.1364544037        0.3600751937        0.2802053268
End final coordinates

     Writing config-only to output data dir ./pwscf.save/ :
     XML data file

     Writing all to output data dir ./pwscf.save/ :
     XML data file, charge density, pseudopotentials, collected wavefunctions

     General routines

     Parallel routines

   This run was terminated on:  17:40:10  11Jul2024

   JOB DONE.