     Program PWSCF v.7.3.1 starts on 12Jul2024 at 14:14: 7

     Waiting for input...
     Reading input from standard input

     Current dimensions of program PWSCF are:
     Max number of different atomic species (ntypx) = 10
     Max number of k-points (npk) =  40000
     Max angular momentum in pseudopotentials (lmaxx) =  4

     R & G space division:  proc/nbgrp/npool/nimage =      24
     Subspace diagonalization in iterative solution of the eigenvalue problem:
     a serial algorithm will be used

     Using Slab Decomposition

     Title:
     volume variation

     bravais-lattice index     =            8
     lattice parameter (alat)  =      12.4053  a.u.
     unit-cell volume          =    1355.6218 (a.u.)^3
     number of atoms/cell      =           22
     number of atomic types    =            3
     number of electrons       =        48.00
     number of Kohn-Sham states=           24
     kinetic-energy cutoff     =     100.0000  Ry
     charge density cutoff     =     800.0000  Ry
     scf convergence threshold =      1.0E-10
     mixing beta               =       0.7000
     number of iterations used =            8  plain     mixing
     energy convergence thresh.=      1.0E-05
     force convergence thresh. =      1.0E-05
     press convergence thresh. =      5.0E-01
     Exchange-correlation= PBESOL
                           (   1   4  10   8   0   0   0)
     nstep                     =          300

     celldm(1)=  12.405277  celldm(2)=   1.025571  celldm(3)=   0.692394
     celldm(4)=   0.000000  celldm(5)=   0.000000  celldm(6)=   0.000000

     crystal axes: (cart. coord. in units of alat)
               a(1) = (   1.000000   0.000000   0.000000 )
               a(2) = (   0.000000   1.025571   0.000000 )
               a(3) = (   0.000000   0.000000   0.692394 )

     reciprocal axes: (cart. coord. in units 2 pi/alat)
               b(1) = (  1.000000  0.000000  0.000000 )
               b(2) = (  0.000000  0.975067  0.000000 )
               b(3) = (  0.000000  0.000000  1.444264 )

     PseudoPot. # 1 for B  read from file:
     /home/mehlhorn/pseudos/b_pbesol_v1.4.uspp.F.UPF
     MD5 check sum: 369b69bef2c3aeed4453bd8b804fd6a8
     Pseudo is Ultrasoft + core correction, Zval =  3.0
     Generated by new atomic code, or converted to UPF format
     Using radial grid of  781 points,  4 beta functions with:
                l(1) =   0
                l(2) =   0
                l(3) =   1
                l(4) =   1
     Q(r) pseudized with  8 coefficients,  rinner =    1.100   1.100   1.100

     PseudoPot. # 2 for Ba read from file:
     /home/mehlhorn/pseudos/Ba.nc.z_10.oncvpsp4.dojo.v4-sp.upf
     MD5 check sum: c10ed334bb677c0554edec7181ce9143
     Pseudo is Norm-conserving + core correction, Zval = 10.0
     Generated using ONCVPSP code by D. R. Hamann
     Using radial grid of 1938 points,  8 beta functions with:
                l(1) =   0
                l(2) =   0
                l(3) =   1
                l(4) =   1
                l(5) =   2
                l(6) =   2
                l(7) =   3
                l(8) =   3

     PseudoPot. # 3 for H  read from file:
     /home/mehlhorn/pseudos/H_ONCV_PBEsol-1.0.upf
     MD5 check sum: 398ef8f67c0a7342c05c87c5e19ea467
     Pseudo is Norm-conserving, Zval =  1.0
     Generated using ONCVPSP code by D. R. Hamann
     Using radial grid of 1180 points,  2 beta functions with:
                l(1) =   0
                l(2) =   0

     atomic species   valence    mass     pseudopotential
     B                 3.00    10.81100     B ( 1.00)
     Ba               10.00   137.32700     Ba( 1.00)
     H                 1.00     1.00794     H ( 1.00)

      4 Sym. Ops. (no inversion) found ( 2 have fractional translation)

   Cartesian axes

     site n.     atom                  positions (alat units)
         1        Ba     tau(   1) = (   0.5000000   0.5127855   0.3462657  )
         2        Ba     tau(   2) = (   0.0000000   0.0000000   0.6923255  )
         3        B      tau(   3) = (   0.6102570   0.2453190   0.0000455  )
         4        B      tau(   4) = (   0.3897430   0.7802519   0.0000455  )
         5        B      tau(   5) = (   0.1102570   0.2674665   0.3461516  )
         6        B      tau(   6) = (   0.8897430   0.7581045   0.3461516  )
         7        H      tau(   7) = (   0.4340973   0.2996264   0.0001599  )
         8        H      tau(   8) = (   0.5659027   0.7259445   0.0001599  )
         9        H      tau(   9) = (   0.9340973   0.2131590   0.3460372  )
        10        H      tau(  10) = (   0.0659027   0.8124119   0.3460372  )
        11        H      tau(  11) = (   0.7220603   0.3933629  -0.0000058  )
        12        H      tau(  12) = (   0.2779397   0.6322081  -0.0000058  )
        13        H      tau(  13) = (   0.2220603   0.1194226   0.3462029  )
        14        H      tau(  14) = (   0.7779397   0.9061483   0.3462029  )
        15        H      tau(  15) = (   0.6392499   0.1457279   0.5404125  )
        16        H      tau(  16) = (   0.3607501   0.8798430   0.5404125  )
        17        H      tau(  17) = (   0.1392499   0.3670576   0.4981787  )
        18        H      tau(  18) = (   0.8607501   0.6585133   0.4981787  )
        19        H      tau(  19) = (   0.3605328   0.8798946   0.1519977  )
        20        H      tau(  20) = (   0.6394672   0.1456763   0.1519977  )
        21        H      tau(  21) = (   0.8605328   0.6584617   0.1941994  )
        22        H      tau(  22) = (   0.1394672   0.3671092   0.1941994  )

     number of k points=    27
                       cart. coord. in units 2pi/alat
        k(    1) = (   0.0000000   0.0000000   0.0000000), wk =   0.0312500
        k(    2) = (   0.0000000   0.0000000   0.3610660), wk =   0.0625000
        k(    3) = (   0.0000000   0.0000000  -0.7221320), wk =   0.0312500
        k(    4) = (   0.0000000   0.2437667   0.0000000), wk =   0.0625000
        k(    5) = (   0.0000000   0.2437667   0.3610660), wk =   0.1250000
        k(    6) = (   0.0000000   0.2437667  -0.7221320), wk =   0.0625000
        k(    7) = (   0.0000000  -0.4875333   0.0000000), wk =   0.0312500
        k(    8) = (   0.0000000  -0.4875333   0.3610660), wk =   0.0625000
        k(    9) = (   0.0000000  -0.4875333  -0.7221320), wk =   0.0312500
        k(   10) = (   0.2500000   0.0000000   0.0000000), wk =   0.0625000
        k(   11) = (   0.2500000   0.0000000   0.3610660), wk =   0.1250000
        k(   12) = (   0.2500000   0.0000000  -0.7221320), wk =   0.0625000
        k(   13) = (   0.2500000   0.2437667   0.0000000), wk =   0.1250000
        k(   14) = (   0.2500000   0.2437667   0.3610660), wk =   0.2500000
        k(   15) = (   0.2500000   0.2437667  -0.7221320), wk =   0.1250000
        k(   16) = (   0.2500000  -0.4875333   0.0000000), wk =   0.0625000
        k(   17) = (   0.2500000  -0.4875333   0.3610660), wk =   0.1250000
        k(   18) = (   0.2500000  -0.4875333  -0.7221320), wk =   0.0625000
        k(   19) = (  -0.5000000   0.0000000   0.0000000), wk =   0.0312500
        k(   20) = (  -0.5000000   0.0000000   0.3610660), wk =   0.0625000
        k(   21) = (  -0.5000000   0.0000000  -0.7221320), wk =   0.0312500
        k(   22) = (  -0.5000000   0.2437667   0.0000000), wk =   0.0625000
        k(   23) = (  -0.5000000   0.2437667   0.3610660), wk =   0.1250000
        k(   24) = (  -0.5000000   0.2437667  -0.7221320), wk =   0.0625000
        k(   25) = (  -0.5000000  -0.4875333   0.0000000), wk =   0.0312500
        k(   26) = (  -0.5000000  -0.4875333   0.3610660), wk =   0.0625000
        k(   27) = (  -0.5000000  -0.4875333  -0.7221320), wk =   0.0312500

     Initial potential from superposition of free atoms

     starting charge      47.9682, renormalised to      48.0000
     Starting wfcs are   42 randomized atomic wfcs

     Self-consistent Calculation

     iteration #  1     ecut=   100.00 Ry     beta= 0.70
     Davidson diagonalization with overlap
     ethr =  1.00E-02,  avg # of iterations =  2.0

     total energy              =    -155.88739156 Ry
     estimated scf accuracy    <       2.20806907 Ry

[...]

     End of self-consistent calculation

          k = 0.0000 0.0000 0.0000 ( 22893 PWs)   bands (ev):

   -23.2559 -23.2429  -8.9552  -8.8363  -8.5733  -8.5199  -8.4954  -8.4099
    -5.8287  -4.8146  -3.9387  -3.8157  -1.4964  -0.5542  -0.3876  -0.1033
     0.3139   0.3605   0.4394   0.5182   0.7065   1.1535   1.1554   1.2006

[...]

          k =-0.5000 0.0000 0.0000 ( 22984 PWs)   bands (ev):

[...]

     highest occupied level (ev):     1.2240

!    total energy              =    -156.46684704 Ry
     estimated scf accuracy    <          6.2E-11 Ry

     The total energy is the sum of the following terms:
     one-electron contribution =     -18.63324968 Ry
     hartree contribution      =      24.63081087 Ry
     xc contribution           =     -49.41237201 Ry
     ewald contribution        =    -113.05203622 Ry

     convergence has been achieved in  11 iterations

     Forces acting on atoms (cartesian axes, Ry/au):

     atom    1 type  2   force =     0.00000000    0.00000000    0.00001636
     atom    2 type  2   force =     0.00000000    0.00000000   -0.00001636
     atom    3 type  1   force =    -0.00037258   -0.00177382   -0.00001040
     atom    4 type  1   force =     0.00037258    0.00177382   -0.00001040
     atom    5 type  1   force =    -0.00037258    0.00177382    0.00001040
     atom    6 type  1   force =     0.00037258   -0.00177382    0.00001040
     atom    7 type  3   force =    -0.01441025    0.00361519   -0.00001231
     atom    8 type  3   force =     0.01441025   -0.00361519   -0.00001231
     atom    9 type  3   force =    -0.01441025   -0.00361519    0.00001231
     atom   10 type  3   force =     0.01441025    0.00361519    0.00001231
     atom   11 type  3   force =     0.00952317    0.01147825    0.00000329
     atom   12 type  3   force =    -0.00952317   -0.01147825    0.00000329
     atom   13 type  3   force =     0.00952317   -0.01147825   -0.00000329
     atom   14 type  3   force =    -0.00952317    0.01147825   -0.00000329
     atom   15 type  3   force =     0.00178172   -0.00847157   -0.01284928
     atom   16 type  3   force =    -0.00178172    0.00847157   -0.01284928
     atom   17 type  3   force =     0.00178172    0.00847157    0.01284928
     atom   18 type  3   force =    -0.00178172   -0.00847157    0.01284928
     atom   19 type  3   force =    -0.00174621    0.00845241    0.01283550
     atom   20 type  3   force =     0.00174621   -0.00845241    0.01283550
     atom   21 type  3   force =    -0.00174621   -0.00845241   -0.01283550
     atom   22 type  3   force =     0.00174621    0.00845241   -0.01283550

     Total force =     0.060852     Total SCF correction =     0.000005

     Computing stress (Cartesian axis) and pressure

          total   stress  (Ry/bohr**3)                   (kbar)     P=       34.22
   0.00021581   0.00000000   0.00000000           31.75        0.00        0.00
   0.00000000   0.00022045   0.00000000            0.00       32.43        0.00
[...]
     0.98748359     0.00000000     0.00000000
     0.00000000     1.02792498     0.00000000
     0.00000000     0.00000000     0.69956454
New lattice vectors in INITIAL alat:
     0.98748359     0.00000000     0.00000000
     0.00000000     1.02792498     0.00000000
     0.00000000     0.00000000     0.69956454
New lattice vectors in NEW alat (for information only):
     1.00000000     0.00000000     0.00000000
     0.00000000     1.04095399     0.00000000
     0.00000000     0.00000000     0.70843156
Discrepancy in bohr =     0.000000    0.000000    0.000000
     new conv_thr            =            1.0E-12 Ry

     new unit-cell volume =   1355.62177 a.u.^3 (   200.88242 Ang^3 )
     density =      2.76113 g/cm^3

[...]

ATOMIC_POSITIONS (crystal)
Ba               0.5000000000        0.5000000000        0.5000012429
Ba               0.0000000000        0.0000000000        0.9999987571
B                0.6033630748        0.2349903071       -0.0000008418
B                0.3966369252        0.7650096929       -0.0000008418
B                0.1033630748        0.2650096929        0.5000008418
B                0.8966369252        0.7349903071        0.5000008418
H                0.4238703375        0.2936437981       -0.0000081463
H                0.5761296625        0.7063562019       -0.0000081463
H                0.9238703375        0.2063562019        0.5000081463
H                0.0761296625        0.7936437981        0.5000081463
H                0.7229827972        0.3781868580        0.0000188578
H                0.2770172028        0.6218131420        0.0000188578
H                0.2229827972        0.1218131420        0.4999811422
H                0.7770172028        0.8781868580        0.4999811422
H                0.6306163908        0.1359170561        0.7791860971
H                0.3693836092        0.8640829439        0.7791860971
H                0.1306163908        0.3640829439        0.7208139029
H                0.8693836092        0.6359170561        0.7208139029
H                0.3694026568        0.8640791176        0.2208178811
H                0.6305973432        0.1359208824        0.2208178811
H                0.8694026568        0.6359208824        0.2791821189
H                0.1305973432        0.3640791176        0.2791821189

     Writing config-only to output data dir ./pwscf.save/ :
     XML data file
     NEW-OLD atomic charge density approx. for the potential

[...]

     Threshold (ethr) on eigenvalues was too large:
     Diagonalizing with lowered threshold

     Davidson diagonalization with overlap
     ethr =  9.44E-12,  avg # of iterations =  4.9

[...]

     Volume is kept fixed: isostatic pressure set to zero
     Energy error            =      5.1E-09 Ry
     Gradient error          =      7.8E-06 Ry/Bohr
     Cell gradient error     =      2.0E-04 kbar
ibrav =      8
 celldm(1) =     12.25000789
 celldm(2) =      1.04095399
 celldm(3) =      0.70843156
Input lattice vectors:
     0.98748359     0.00000000     0.00000000
     0.00000000     1.02792498     0.00000000
     0.00000000     0.00000000     0.69956454
New lattice vectors in INITIAL alat:
     0.98748359     0.00000000     0.00000000
     0.00000000     1.02792498     0.00000000
     0.00000000     0.00000000     0.69956454
New lattice vectors in NEW alat (for information only):
     1.00000000     0.00000000     0.00000000
     0.00000000     1.04095399     0.00000000
     0.00000000     0.00000000     0.70843156
Discrepancy in bohr =     0.000000    0.000000    0.000000

     bfgs converged in  54 scf cycles and  53 bfgs steps
     (criteria: energy <  1.0E-05 Ry, force <  1.0E-05 Ry/Bohr, cell <  5.0E-01 kbar)

     End of BFGS Geometry Optimization

     Final enthalpy           =    -156.4723743316 Ry

     File ./pwscf.bfgs deleted, as requested
Begin final coordinates
     new unit-cell volume =   1355.62177 a.u.^3 (   200.88242 Ang^3 )
     density =      2.76113 g/cm^3

CELL_PARAMETERS (alat= 12.40527740)
   0.987483592   0.000000000   0.000000000
   0.000000000   1.027924983   0.000000000
   0.000000000   0.000000000   0.699564537

ATOMIC_POSITIONS (crystal)
Ba               0.5000000000        0.5000000000        0.5000012429
Ba               0.0000000000        0.0000000000        0.9999987571
B                0.6033630748        0.2349903071       -0.0000008418
B                0.3966369252        0.7650096929       -0.0000008418
B                0.1033630748        0.2650096929        0.5000008418
B                0.8966369252        0.7349903071        0.5000008418
H                0.4238703375        0.2936437981       -0.0000081463
H                0.5761296625        0.7063562019       -0.0000081463
H                0.9238703375        0.2063562019        0.5000081463
H                0.0761296625        0.7936437981        0.5000081463
H                0.7229827972        0.3781868580        0.0000188578
H                0.2770172028        0.6218131420        0.0000188578
H                0.2229827972        0.1218131420        0.4999811422
H                0.7770172028        0.8781868580        0.4999811422
H                0.6306163908        0.1359170561        0.7791860971
H                0.3693836092        0.8640829439        0.7791860971
H                0.1306163908        0.3640829439        0.7208139029
H                0.8693836092        0.6359170561        0.7208139029
H                0.3694026568        0.8640791176        0.2208178811
H                0.6305973432        0.1359208824        0.2208178811
H                0.8694026568        0.6359208824        0.2791821189
H                0.1305973432        0.3640791176        0.2791821189
End final coordinates

     Writing config-only to output data dir ./pwscf.save/ :
     XML data file

     Final scf calculation at the relaxed structure.
     The G-vectors are recalculated for the final unit cell
     Results may differ from those at the preceding step.

     Using Slab Decomposition

     Title:
     volume variation

     bravais-lattice index     =            8
     lattice parameter (alat)  =      12.4053  a.u.
     unit-cell volume          =    1355.6218 (a.u.)^3
     number of atoms/cell      =           22
     number of atomic types    =            3
     number of electrons       =        48.00
     number of Kohn-Sham states=           24
     kinetic-energy cutoff     =     100.0000  Ry
     charge density cutoff     =     800.0000  Ry
     scf convergence threshold =      1.0E-12
     mixing beta               =       0.7000
     number of iterations used =            8  plain     mixing
     press convergence thresh. =      5.0E-01
     Exchange-correlation= PBESOL
                           (   1   4  10   8   0   0   0)

     celldm(1)=  12.405277  celldm(2)=   1.025571  celldm(3)=   0.692394
     celldm(4)=   0.000000  celldm(5)=   0.000000  celldm(6)=   0.000000

     crystal axes: (cart. coord. in units of alat)
               a(1) = (   0.987484   0.000000   0.000000 )
               a(2) = (   0.000000   1.027925   0.000000 )
               a(3) = (   0.000000   0.000000   0.699565 )

     reciprocal axes: (cart. coord. in units 2 pi/alat)
               b(1) = (  1.012675  0.000000  0.000000 )
               b(2) = (  0.000000  0.972834  0.000000 )
               b(3) = (  0.000000  0.000000  1.429461 )

     PseudoPot. # 1 for B  read from file:
     /home/mehlhorn/pseudos/b_pbesol_v1.4.uspp.F.UPF
     MD5 check sum: 369b69bef2c3aeed4453bd8b804fd6a8
     Pseudo is Ultrasoft + core correction, Zval =  3.0
     Generated by new atomic code, or converted to UPF format
     Using radial grid of  781 points,  4 beta functions with:
                l(1) =   0
                l(2) =   0
                l(3) =   1
                l(4) =   1
     Q(r) pseudized with  8 coefficients,  rinner =    1.100   1.100   1.100

     PseudoPot. # 2 for Ba read from file:
     /home/mehlhorn/pseudos/Ba.nc.z_10.oncvpsp4.dojo.v4-sp.upf
     MD5 check sum: c10ed334bb677c0554edec7181ce9143
     Pseudo is Norm-conserving + core correction, Zval = 10.0
     Generated using ONCVPSP code by D. R. Hamann
     Using radial grid of 1938 points,  8 beta functions with:
                l(1) =   0
                l(2) =   0
                l(3) =   1
                l(4) =   1
                l(5) =   2
                l(6) =   2
                l(7) =   3
                l(8) =   3

     PseudoPot. # 3 for H  read from file:
     /home/mehlhorn/pseudos/H_ONCV_PBEsol-1.0.upf
     MD5 check sum: 398ef8f67c0a7342c05c87c5e19ea467
     Pseudo is Norm-conserving, Zval =  1.0
     Generated using ONCVPSP code by D. R. Hamann
     Using radial grid of 1180 points,  2 beta functions with:
                l(1) =   0
                l(2) =   0

     atomic species   valence    mass     pseudopotential
     B                 3.00    10.81100     B ( 1.00)
     Ba               10.00   137.32700     Ba( 1.00)
     H                 1.00     1.00794     H ( 1.00)

      4 Sym. Ops. (no inversion) found ( 2 have fractional translation)

   Cartesian axes

     site n.     atom                  positions (alat units)
         1        Ba     tau(   1) = (   0.4937418   0.5139625   0.3497831  )
         2        Ba     tau(   2) = (   0.0000000   0.0000000   0.6995637  )
         3        B      tau(   3) = (   0.5958111   0.2415524  -0.0000006  )
         4        B      tau(   4) = (   0.3916725   0.7863726  -0.0000006  )
         5        B      tau(   5) = (   0.1020693   0.2724101   0.3497829  )
         6        B      tau(   6) = (   0.8854143   0.7555149   0.3497829  )
         7        H      tau(   7) = (   0.4185650   0.3018438  -0.0000057  )
         8        H      tau(   8) = (   0.5689186   0.7260812  -0.0000057  )
         9        H      tau(   9) = (   0.9123068   0.2121187   0.3497880  )
        10        H      tau(  10) = (   0.0751768   0.8158063   0.3497880  )
        11        H      tau(  11) = (   0.7139336   0.3887477   0.0000132  )
        12        H      tau(  12) = (   0.2735499   0.6391773   0.0000132  )
        13        H      tau(  13) = (   0.2201919   0.1252148   0.3497691  )
        14        H      tau(  14) = (   0.7672917   0.9027102   0.3497691  )
        15        H      tau(  15) = (   0.6227233   0.1397125   0.5450910  )
        16        H      tau(  16) = (   0.3647603   0.8882124   0.5450910  )
        17        H      tau(  17) = (   0.1289815   0.3742500   0.5042558  )
        18        H      tau(  18) = (   0.8585020   0.6536750   0.5042558  )
        19        H      tau(  19) = (   0.3647791   0.8882085   0.1544764  )
        20        H      tau(  20) = (   0.6227045   0.1397165   0.1544764  )
        21        H      tau(  21) = (   0.8585209   0.6536790   0.1953059  )
        22        H      tau(  22) = (   0.1289627   0.3742460   0.1953059  )

     number of k points=    27
                       cart. coord. in units 2pi/alat
        k(    1) = (   0.0000000   0.0000000   0.0000000), wk =   0.0312500
        k(    2) = (   0.0000000   0.0000000   0.3573652), wk =   0.0625000
        k(    3) = (   0.0000000   0.0000000  -0.7147303), wk =   0.0312500
        k(    4) = (   0.0000000   0.2432084   0.0000000), wk =   0.0625000
        k(    5) = (   0.0000000   0.2432084   0.3573652), wk =   0.1250000
        k(    6) = (   0.0000000   0.2432084  -0.7147303), wk =   0.0625000
        k(    7) = (   0.0000000  -0.4864168   0.0000000), wk =   0.0312500
        k(    8) = (   0.0000000  -0.4864168   0.3573652), wk =   0.0625000
        k(    9) = (   0.0000000  -0.4864168  -0.7147303), wk =   0.0312500
        k(   10) = (   0.2531688   0.0000000   0.0000000), wk =   0.0625000
        k(   11) = (   0.2531688   0.0000000   0.3573652), wk =   0.1250000
        k(   12) = (   0.2531688   0.0000000  -0.7147303), wk =   0.0625000
        k(   13) = (   0.2531688   0.2432084   0.0000000), wk =   0.1250000
        k(   14) = (   0.2531688   0.2432084   0.3573652), wk =   0.2500000
        k(   15) = (   0.2531688   0.2432084  -0.7147303), wk =   0.1250000
        k(   16) = (   0.2531688  -0.4864168   0.0000000), wk =   0.0625000
        k(   17) = (   0.2531688  -0.4864168   0.3573652), wk =   0.1250000
        k(   18) = (   0.2531688  -0.4864168  -0.7147303), wk =   0.0625000
        k(   19) = (  -0.5063375   0.0000000   0.0000000), wk =   0.0312500
        k(   20) = (  -0.5063375   0.0000000   0.3573652), wk =   0.0625000
        k(   21) = (  -0.5063375   0.0000000  -0.7147303), wk =   0.0312500
        k(   22) = (  -0.5063375   0.2432084   0.0000000), wk =   0.0625000
        k(   23) = (  -0.5063375   0.2432084   0.3573652), wk =   0.1250000
        k(   24) = (  -0.5063375   0.2432084  -0.7147303), wk =   0.0625000
        k(   25) = (  -0.5063375  -0.4864168   0.0000000), wk =   0.0312500
        k(   26) = (  -0.5063375  -0.4864168   0.3573652), wk =   0.0625000
        k(   27) = (  -0.5063375  -0.4864168  -0.7147303), wk =   0.0312500

     Initial potential from superposition of free atoms

     starting charge      47.9682, renormalised to      48.0000
     Starting wfcs are   42 randomized atomic wfcs

     Self-consistent Calculation

[...]

     total energy              =    -156.47237467 Ry
     estimated scf accuracy    <          1.4E-12 Ry

     iteration # 13     ecut=   100.00 Ry     beta= 0.70
     Davidson diagonalization with overlap
     ethr =  1.00E-13,  avg # of iterations =  1.0

     End of self-consistent calculation

[...]

          k = 0.2532-0.4864-0.7147 ( 22908 PWs)   bands (ev):

[...]

          k =-0.5063-0.4864-0.7147 ( 22896 PWs)   bands (ev):

   -23.2375 -23.2375  -9.0349  -9.0349  -8.6585  -8.6585  -8.5611  -8.5611
    -4.5432  -4.5432  -3.9460  -3.9460  -1.2466  -1.2466  -0.4486  -0.4486
     0.6609   0.6609   0.7414   0.7414   0.9339   0.9339   1.1450   1.1450

     highest occupied level (ev):     1.3708

!    total energy              =    -156.47237467 Ry
     estimated scf accuracy    <          1.2E-14 Ry

     The total energy is the sum of the following terms:
     one-electron contribution =     -16.52700751 Ry
     hartree contribution      =      23.58538297 Ry
     xc contribution           =     -49.24457205 Ry
     ewald contribution        =    -114.28617808 Ry

     convergence has been achieved in  13 iterations

     Forces acting on atoms (cartesian axes, Ry/au):

     atom    1 type  2   force =     0.00000000    0.00000000   -0.00000491
     atom    2 type  2   force =     0.00000000    0.00000000    0.00000491
     atom    3 type  1   force =     0.00000089   -0.00000045    0.00000492
     atom    4 type  1   force =    -0.00000089    0.00000045    0.00000492
     atom    5 type  1   force =     0.00000089    0.00000045   -0.00000492
     atom    6 type  1   force =    -0.00000089   -0.00000045   -0.00000492
     atom    7 type  3   force =    -0.00000080   -0.00000014   -0.00000200
     atom    8 type  3   force =     0.00000080    0.00000014   -0.00000200
     atom    9 type  3   force =    -0.00000080    0.00000014    0.00000200
     atom   10 type  3   force =     0.00000080   -0.00000014    0.00000200
     atom   11 type  3   force =     0.00000160    0.00000083   -0.00000779
     atom   12 type  3   force =    -0.00000160   -0.00000083   -0.00000779
     atom   13 type  3   force =     0.00000160   -0.00000083    0.00000779
     atom   14 type  3   force =    -0.00000160    0.00000083    0.00000779
     atom   15 type  3   force =    -0.00000334    0.00000558    0.00000225
     atom   16 type  3   force =     0.00000334   -0.00000558    0.00000225
     atom   17 type  3   force =    -0.00000334   -0.00000558   -0.00000225
     atom   18 type  3   force =     0.00000334    0.00000558   -0.00000225
     atom   19 type  3   force =    -0.00000210    0.00000581    0.00000306
     atom   20 type  3   force =     0.00000210   -0.00000581    0.00000306
     atom   21 type  3   force =    -0.00000210   -0.00000581   -0.00000306
     atom   22 type  3   force =     0.00000210    0.00000581   -0.00000306

     Total force =     0.000028     Total SCF correction =     0.000000

     Computing stress (Cartesian axis) and pressure

          total   stress  (Ry/bohr**3)                   (kbar)     P=       10.96
   0.00007447   0.00000000   0.00000000           10.95        0.00        0.00
   0.00000000   0.00007448   0.00000000            0.00       10.96        0.00
   0.00000000   0.00000000   0.00007449            0.00        0.00       10.96

     Writing all to output data dir ./pwscf.save/ :
     XML data file, charge density, pseudopotentials, collected wavefunctions

     General routines

     Parallel routines

   This run was terminated on:  15:56:43  12Jul2024

   JOB DONE.