     Program PHONON v.7.3.1 starts on 12Jul2024 at 12:21:18

     Waiting for input...
     Reading input from standard input

     Reading xml data from directory:

     ./pwscf.save/

     R & G space division:  proc/nbgrp/npool/nimage =      24
     Subspace diagonalization in iterative solution of the eigenvalue problem:
     a serial algorithm will be used

     IMPORTANT: XC functional enforced from input :
     Exchange-correlation= PBESOL
                           (   1   4  10   8   0   0   0)
     Any further DFT definition will be discarded
     Please, verify this is what you really want

     Using Slab Decomposition

     Reading collected, re-writing distributed wavefunctions in ./

     Dynamical matrices for ( 3, 3, 3)  uniform grid of q-points
     (   8 q-points):
       N         xq(1)         xq(2)         xq(3)
       1   0.000000000   0.000000000   0.000000000
       2   0.000000000   0.000000000   0.487985361
       3   0.000000000   0.327455185   0.000000000
       4   0.000000000   0.327455185   0.487985361
       5   0.333333333   0.000000000   0.000000000
       6   0.333333333   0.000000000   0.487985361
       7   0.333333333   0.327455185   0.000000000
       8   0.333333333   0.327455185   0.487985361

     Number and degeneracy of irreps per q-point
       N         xq(1)         xq(2)         xq(3)   N irreps
       1   0.000000000   0.000000000   0.000000000      66
     No degeneracy
       2   0.000000000   0.000000000   0.487985361      66
     No degeneracy
       3   0.000000000   0.327455185   0.000000000      66
     No degeneracy
       4   0.000000000   0.327455185   0.487985361      66
     No degeneracy
       5   0.333333333   0.000000000   0.000000000      66
     No degeneracy
       6   0.333333333   0.000000000   0.487985361      66
     No degeneracy
       7   0.333333333   0.327455185   0.000000000      66
     No degeneracy
       8   0.333333333   0.327455185   0.487985361      66
     No degeneracy

     Saving dvscf to file. Distribute only q points, not irreducible representations.

     Calculation of q =    0.0000000   0.0000000   0.0000000

     bravais-lattice index     =            8
     lattice parameter (alat)  =      12.8129  a.u.
     unit-cell volume          =    1462.6445 (a.u.)^3
     number of atoms/cell      =           22
     number of atomic types    =            3
     kinetic-energy cut-off    =     100.0000  Ry
     charge density cut-off    =     800.0000  Ry
     convergence threshold     =      1.0E-14
     beta                      =       0.7000
     number of iterations used =            4
     Exchange-correlation= PBESOL
                           (   1   4  10   8   0   0   0)

     celldm(1)=   12.81288  celldm(2)=    1.01795  celldm(3)=    0.68308
     celldm(4)=    0.00000  celldm(5)=    0.00000  celldm(6)=    0.00000

     crystal axes: (cart. coord. in units of alat)
               a(1) = (  1.0000  0.0000  0.0000 )
               a(2) = (  0.0000  1.0180  0.0000 )
               a(3) = (  0.0000  0.0000  0.6831 )

     reciprocal axes: (cart. coord. in units 2 pi/alat)
               b(1) = (  1.0000  0.0000  0.0000 )
               b(2) = (  0.0000  0.9824  0.0000 )
               b(3) = (  0.0000  0.0000  1.4640 )

     Atoms inside the unit cell:

     Cartesian axes

     site n.  atom      mass           positions (alat units)
        1  Ba    137.3270   tau(    1) = (    0.50000    0.50898    0.34155  )
        2  Ba    137.3270   tau(    2) = (    0.00000    0.00000    0.68307  )
        3  B      10.8110   tau(    3) = (    0.61420    0.24656   -0.00000  )
        4  B      10.8110   tau(    4) = (    0.38580    0.77139   -0.00000  )
        5  B      10.8110   tau(    5) = (    0.11420    0.26242    0.34154  )
        6  B      10.8110   tau(    6) = (    0.88580    0.75553    0.34154  )
        7  H       1.0079   tau(    7) = (    0.43940    0.29608   -0.00001  )
        8  H       1.0079   tau(    8) = (    0.56060    0.72187   -0.00001  )
        9  H       1.0079   tau(    9) = (    0.93940    0.21290    0.34155  )
       10  H       1.0079   tau(   10) = (    0.06060    0.80505    0.34155  )
       11  H       1.0079   tau(   11) = (    0.72088    0.39486    0.00001  )
       12  H       1.0079   tau(   12) = (    0.27912    0.62309    0.00001  )
       13  H       1.0079   tau(   13) = (    0.22088    0.11412    0.34153  )
       14  H       1.0079   tau(   14) = (    0.77912    0.90383    0.34153  )
       15  H       1.0079   tau(   15) = (    0.64503    0.14910    0.53328  )
       16  H       1.0079   tau(   16) = (    0.35497    0.86885    0.53328  )
       17  H       1.0079   tau(   17) = (    0.14503    0.35988    0.49134  )
       18  H       1.0079   tau(   18) = (    0.85497    0.65807    0.49134  )
       19  H       1.0079   tau(   19) = (    0.35499    0.86884    0.14980  )
       20  H       1.0079   tau(   20) = (    0.64501    0.14911    0.14980  )
       21  H       1.0079   tau(   21) = (    0.85499    0.65809    0.19174  )
       22  H       1.0079   tau(   22) = (    0.14501    0.35986    0.19174  )

     Computing dynamical matrix for
                    q = (   0.0000000   0.0000000   0.0000000 )

      5 Sym.Ops. (with q -> -q+G )

     G cutoff = 3326.7760  (  23291 G-vectors)     FFT grid: (120,120, 80)
     G cutoff = 1663.3880  (   8233 G-vectors)  smooth grid: ( 90, 90, 60)
     number of k points=    27

     PseudoPot. # 1 for B  read from file:
     /home/mehlhorn/pseudos/b_pbesol_v1.4.uspp.F.UPF
     MD5 check sum: 369b69bef2c3aeed4453bd8b804fd6a8
     Pseudo is Ultrasoft + core correction, Zval =  3.0
     Generated by new atomic code, or converted to UPF format
     Using radial grid of  781 points,  4 beta functions with:
                l(1) =   0
                l(2) =   0
                l(3) =   1
                l(4) =   1
     Q(r) pseudized with  8 coefficients,  rinner =    1.100   1.100   1.100

     PseudoPot. # 2 for Ba read from file:
     /home/mehlhorn/pseudos/Ba.nc.z_10.oncvpsp4.dojo.v4-sp.upf
     MD5 check sum: c10ed334bb677c0554edec7181ce9143
     Pseudo is Norm-conserving + core correction, Zval = 10.0
     Generated using ONCVPSP code by D. R. Hamann
     Using radial grid of 1938 points,  8 beta functions with:
                l(1) =   0
                l(2) =   0
                l(3) =   1
                l(4) =   1
                l(5) =   2
                l(6) =   2
                l(7) =   3
                l(8) =   3

     PseudoPot. # 3 for H  read from file:
     /home/mehlhorn/pseudos/H_ONCV_PBEsol-1.0.upf
     MD5 check sum: 398ef8f67c0a7342c05c87c5e19ea467
     Pseudo is Norm-conserving, Zval =  1.0
     Generated using ONCVPSP code by D. R. Hamann
     Using radial grid of 1180 points,  2 beta functions with:
                l(1) =   0
                l(2) =   0

     Mode symmetry, D_2  (222)  point group:

     Electric field:
     Dielectric constant
     Born effective charges in two ways

     Atomic displacements:
     There are   66 irreducible representations

     Representation     1      1 modes -  To be done

[...]

     Alpha used in Ewald sum =   2.8000

     Electric Fields Calculation

      thresh= 1.000E-02 alpha_mix =  0.700 |ddv_scf|^2 =  6.019E-09

[...]

     End of electric fields calculation

          Dielectric constant in cartesian axis

          (       3.057153940       0.000000000       0.000000000 )
          (       0.000000000       3.112661034       0.000000000 )
          (       0.000000000       0.000000000       3.262418690 )

          Effective charges (d Force / dE) in cartesian axis without acoustic sum rule applied (asr)

           atom    1  Ba    Mean Z*:        2.64248
      Ex  (        2.47245       -0.05360        0.00000 )
      Ey  (        0.28244        2.49353        0.00000 )
      Ez  (        0.00000        0.00000        2.96146 )
           atom    2  Ba    Mean Z*:        2.64248
      Ex  (        2.47245        0.05360        0.00000 )
      Ey  (       -0.28244        2.49353        0.00000 )
      Ez  (        0.00000        0.00000        2.96146 )
           atom    3  B     Mean Z*:       -0.12425
      Ex  (       -0.14326        0.02941       -0.00002 )
      Ey  (        0.17399       -0.03107        0.00006 )
      Ez  (        0.00003        0.00003       -0.19842 )
           atom    4  B     Mean Z*:       -0.12425
      Ex  (       -0.14326        0.02941        0.00002 )
      Ey  (        0.17399       -0.03107       -0.00006 )
      Ez  (       -0.00003       -0.00003       -0.19842 )
           atom    5  B     Mean Z*:       -0.12425
      Ex  (       -0.14326       -0.02941        0.00002 )
      Ey  (       -0.17399       -0.03107        0.00006 )
      Ez  (       -0.00003        0.00003       -0.19842 )
           atom    6  B     Mean Z*:       -0.12425
      Ex  (       -0.14326       -0.02941       -0.00002 )
      Ey  (       -0.17399       -0.03107       -0.00006 )
      Ez  (        0.00003       -0.00003       -0.19842 )
           atom    7  H     Mean Z*:       -0.30991
      Ex  (       -0.43459        0.13924       -0.00001 )
      Ey  (        0.14491       -0.24572        0.00003 )
      Ez  (       -0.00003        0.00003       -0.24941 )
           atom    8  H     Mean Z*:       -0.30991
      Ex  (       -0.43459        0.13924        0.00001 )
      Ey  (        0.14491       -0.24572       -0.00003 )
      Ez  (        0.00003       -0.00003       -0.24941 )
           atom    9  H     Mean Z*:       -0.30991
      Ex  (       -0.43459       -0.13924        0.00001 )
      Ey  (       -0.14491       -0.24572        0.00003 )
      Ez  (        0.00003        0.00003       -0.24941 )
           atom   10  H     Mean Z*:       -0.30991
      Ex  (       -0.43459       -0.13924       -0.00001 )
      Ey  (       -0.14491       -0.24572       -0.00003 )
      Ez  (       -0.00003       -0.00003       -0.24941 )
           atom   11  H     Mean Z*:       -0.31086
      Ex  (       -0.25479       -0.03478        0.00000 )
      Ey  (       -0.11097       -0.43308       -0.00004 )
      Ez  (        0.00000       -0.00002       -0.24470 )
           atom   12  H     Mean Z*:       -0.31086
      Ex  (       -0.25479       -0.03478       -0.00000 )
      Ey  (       -0.11097       -0.43308        0.00004 )
      Ez  (       -0.00000        0.00002       -0.24470 )
           atom   13  H     Mean Z*:       -0.31086
      Ex  (       -0.25479        0.03478       -0.00000 )
      Ey  (        0.11097       -0.43308       -0.00004 )
      Ez  (       -0.00000       -0.00002       -0.24470 )
           atom   14  H     Mean Z*:       -0.31086
      Ex  (       -0.25479        0.03478        0.00000 )
      Ey  (        0.11097       -0.43308        0.00004 )
      Ez  (        0.00000        0.00002       -0.24470 )
           atom   15  H     Mean Z*:       -0.28787
      Ex  (       -0.20195        0.14932        0.06402 )
      Ey  (        0.10174       -0.26782       -0.09746 )
      Ez  (        0.02505       -0.11355       -0.39385 )
           atom   16  H     Mean Z*:       -0.28787
[...]

[...]

     atomic species   valence    mass     pseudopotential
     B                 3.00    10.81100     B ( 1.00)
     Ba               10.00   137.32700     Ba( 1.00)
     H                 1.00     1.00794     H ( 1.00)

      4 Sym. Ops. (no inversion) found

[...]

     site n.     atom                  positions (alat units)
         1        Ba     tau(   1) = (   0.5000000   0.5089755   0.3415515  )
         2        Ba     tau(   2) = (   0.0000000   0.0000000   0.6830694  )
         3        B      tau(   3) = (   0.6141967   0.2465582  -0.0000039  )
         4        B      tau(   4) = (   0.3858033   0.7713928  -0.0000039  )
         5        B      tau(   5) = (   0.1141967   0.2624173   0.3415442  )
         6        B      tau(   6) = (   0.8858033   0.7555337   0.3415442  )
         7        H      tau(   7) = (   0.4394030   0.2960767  -0.0000147  )
         8        H      tau(   8) = (   0.5605970   0.7218743  -0.0000147  )
         9        H      tau(   9) = (   0.9394030   0.2128988   0.3415550  )
        10        H      tau(  10) = (   0.0605970   0.8050522   0.3415550  )
        11        H      tau(  11) = (   0.7208817   0.3948592   0.0000136  )
        12        H      tau(  12) = (   0.2791183   0.6230918   0.0000136  )
        13        H      tau(  13) = (   0.2208817   0.1141163   0.3415267  )
        14        H      tau(  14) = (   0.7791183   0.9038347   0.3415267  )
        15        H      tau(  15) = (   0.6450297   0.1490981   0.5332835  )
        16        H      tau(  16) = (   0.3549703   0.8688529   0.5332835  )
        17        H      tau(  17) = (   0.1450297   0.3598774   0.4913374  )
        18        H      tau(  18) = (   0.8549703   0.6580736   0.4913374  )
        19        H      tau(  19) = (   0.3549857   0.8688402   0.1497973  )
        20        H      tau(  20) = (   0.6450143   0.1491108   0.1497973  )
        21        H      tau(  21) = (   0.8549857   0.6580863   0.1917430  )
        22        H      tau(  22) = (   0.1450143   0.3598647   0.1917430  )

     number of k points=   250

     Number of k-points >= 100: set verbosity='high' to print them.

     The potential is recalculated from file :
     ./_ph0/pwscf.q_8/pwscf.save/charge-density

     Starting wfcs are   42 atomic wfcs

     Band Structure Calculation
     Davidson diagonalization with overlap

     ethr =  2.08E-11,  avg # of iterations = 21.9

     End of band structure calculation

     Number of k-points >= 100: set verbosity='high' to print the bands.

     highest occupied level (ev):     0.6776

     Writing config to output data dir ./_ph0/pwscf.q_8/pwscf.save/ :
     XML data file

     bravais-lattice index     =            8
     lattice parameter (alat)  =      12.8129  a.u.
     unit-cell volume          =    1462.6445 (a.u.)^3
     number of atoms/cell      =           22
     number of atomic types    =            3
     kinetic-energy cut-off    =     100.0000  Ry
     charge density cut-off    =     800.0000  Ry
     convergence threshold     =      1.0E-14
     beta                      =       0.7000
     number of iterations used =            4
     Exchange-correlation= PBESOL
                           (   1   4  10   8   0   0   0)

     celldm(1)=   12.81288  celldm(2)=    1.01795  celldm(3)=    0.68308
     celldm(4)=    0.00000  celldm(5)=    0.00000  celldm(6)=    0.00000

     crystal axes: (cart. coord. in units of alat)
               a(1) = (  1.0000  0.0000  0.0000 )
               a(2) = (  0.0000  1.0180  0.0000 )
               a(3) = (  0.0000  0.0000  0.6831 )

     reciprocal axes: (cart. coord. in units 2 pi/alat)
               b(1) = (  1.0000  0.0000  0.0000 )
               b(2) = (  0.0000  0.9824  0.0000 )
               b(3) = (  0.0000  0.0000  1.4640 )

     Atoms inside the unit cell:

     Cartesian axes

     site n.  atom      mass           positions (alat units)
        1  Ba    137.3270   tau(    1) = (    0.50000    0.50898    0.34155  )
        2  Ba    137.3270   tau(    2) = (    0.00000    0.00000    0.68307  )
        3  B      10.8110   tau(    3) = (    0.61420    0.24656   -0.00000  )
        4  B      10.8110   tau(    4) = (    0.38580    0.77139   -0.00000  )
        5  B      10.8110   tau(    5) = (    0.11420    0.26242    0.34154  )
        6  B      10.8110   tau(    6) = (    0.88580    0.75553    0.34154  )
        7  H       1.0079   tau(    7) = (    0.43940    0.29608   -0.00001  )
        8  H       1.0079   tau(    8) = (    0.56060    0.72187   -0.00001  )
        9  H       1.0079   tau(    9) = (    0.93940    0.21290    0.34155  )
       10  H       1.0079   tau(   10) = (    0.06060    0.80505    0.34155  )
       11  H       1.0079   tau(   11) = (    0.72088    0.39486    0.00001  )
       12  H       1.0079   tau(   12) = (    0.27912    0.62309    0.00001  )
       13  H       1.0079   tau(   13) = (    0.22088    0.11412    0.34153  )
       14  H       1.0079   tau(   14) = (    0.77912    0.90383    0.34153  )
       15  H       1.0079   tau(   15) = (    0.64503    0.14910    0.53328  )
       16  H       1.0079   tau(   16) = (    0.35497    0.86885    0.53328  )
       17  H       1.0079   tau(   17) = (    0.14503    0.35988    0.49134  )
       18  H       1.0079   tau(   18) = (    0.85497    0.65807    0.49134  )
       19  H       1.0079   tau(   19) = (    0.35499    0.86884    0.14980  )
       20  H       1.0079   tau(   20) = (    0.64501    0.14911    0.14980  )
       21  H       1.0079   tau(   21) = (    0.85499    0.65809    0.19174  )
       22  H       1.0079   tau(   22) = (    0.14501    0.35986    0.19174  )

     Computing dynamical matrix for
                    q = (   0.3333333   0.3274552   0.4879854 )

     No symmetry!

     G cutoff = 3326.7760  (  23291 G-vectors)     FFT grid: (120,120, 80)
     G cutoff = 1663.3880  (   8233 G-vectors)  smooth grid: ( 90, 90, 60)
     number of k points=   250

     PseudoPot. # 1 for B  read from file:
     /home/mehlhorn/pseudos/b_pbesol_v1.4.uspp.F.UPF
     MD5 check sum: 369b69bef2c3aeed4453bd8b804fd6a8
     Pseudo is Ultrasoft + core correction, Zval =  3.0
     Generated by new atomic code, or converted to UPF format
     Using radial grid of  781 points,  4 beta functions with:
                l(1) =   0
                l(2) =   0
                l(3) =   1
                l(4) =   1
     Q(r) pseudized with  8 coefficients,  rinner =    1.100   1.100   1.100

     PseudoPot. # 2 for Ba read from file:
     /home/mehlhorn/pseudos/Ba.nc.z_10.oncvpsp4.dojo.v4-sp.upf
     MD5 check sum: c10ed334bb677c0554edec7181ce9143
     Pseudo is Norm-conserving + core correction, Zval = 10.0
     Generated using ONCVPSP code by D. R. Hamann
     Using radial grid of 1938 points,  8 beta functions with:
                l(1) =   0
                l(2) =   0
                l(3) =   1
                l(4) =   1
                l(5) =   2
                l(6) =   2
                l(7) =   3
                l(8) =   3

     PseudoPot. # 3 for H  read from file:
     /home/mehlhorn/pseudos/H_ONCV_PBEsol-1.0.upf
     MD5 check sum: 398ef8f67c0a7342c05c87c5e19ea467
     Pseudo is Norm-conserving, Zval =  1.0
     Generated using ONCVPSP code by D. R. Hamann
     Using radial grid of 1180 points,  2 beta functions with:
                l(1) =   0
                l(2) =   0

[...]

     Atomic displacements:
     There are   66 irreducible representations

[...]

     Representation    66      1 modes -  To be done

     Alpha used in Ewald sum =   2.8000

[...]

     Representation #  66 mode #  66

     Self-consistent Calculation

[...]

      thresh= 1.097E-08 alpha_mix =  0.700 |ddv_scf|^2 =  9.988E-16

     End of self-consistent calculation

     Convergence has been achieved

     Number of q in the star =    4
     List of q in the star:
          1   0.333333333   0.327455185   0.487985361
          2   0.333333333  -0.327455185  -0.487985361
          3  -0.333333333   0.327455185  -0.487985361
          4  -0.333333333  -0.327455185   0.487985361
     In addition there is the -q list:
          1  -0.333333333  -0.327455185  -0.487985361
          2  -0.333333333   0.327455185   0.487985361
          3   0.333333333  -0.327455185   0.487985361
          4   0.333333333   0.327455185  -0.487985361

     Diagonalizing the dynamical matrix

     q = (    0.333333333   0.327455185   0.487985361 )

     freq (    1) =       1.253484 [THz] =      41.811715 [cm-1]
     freq (    2) =       1.307854 [THz] =      43.625326 [cm-1]
     freq (    3) =       1.629651 [THz] =      54.359301 [cm-1]
     freq (    4) =       1.887350 [THz] =      62.955215 [cm-1]
     freq (    5) =       2.875363 [THz] =      95.911782 [cm-1]
     freq (    6) =       2.969202 [THz] =      99.041922 [cm-1]
     freq (    7) =       4.759077 [THz] =     158.745736 [cm-1]
     freq (    8) =       4.847742 [THz] =     161.703281 [cm-1]
     freq (    9) =       5.422495 [THz] =     180.874960 [cm-1]
     freq (   10) =       5.758787 [THz] =     192.092445 [cm-1]
     freq (   11) =       6.099901 [THz] =     203.470800 [cm-1]
     freq (   12) =       6.177375 [THz] =     206.055060 [cm-1]
     freq (   13) =       6.438457 [THz] =     214.763822 [cm-1]
     freq (   14) =       6.743282 [THz] =     224.931674 [cm-1]
     freq (   15) =       7.212953 [THz] =     240.598217 [cm-1]
     freq (   16) =       7.308844 [THz] =     243.796796 [cm-1]
     freq (   17) =       8.246370 [THz] =     275.069301 [cm-1]
     freq (   18) =       8.339975 [THz] =     278.191607 [cm-1]
     freq (   19) =       8.503737 [THz] =     283.654118 [cm-1]
     freq (   20) =       8.528368 [THz] =     284.475730 [cm-1]
     freq (   21) =       9.152188 [THz] =     305.284118 [cm-1]
     freq (   22) =       9.241811 [THz] =     308.273640 [cm-1]
     freq (   23) =       9.291387 [THz] =     309.927313 [cm-1]
     freq (   24) =       9.574341 [THz] =     319.365625 [cm-1]
     freq (   25) =      10.051575 [THz] =     335.284465 [cm-1]
     freq (   26) =      10.214358 [THz] =     340.714309 [cm-1]
     freq (   27) =      12.820012 [THz] =     427.629581 [cm-1]
     freq (   28) =      12.886475 [THz] =     429.846529 [cm-1]
     freq (   29) =      12.951563 [THz] =     432.017643 [cm-1]
     freq (   30) =      13.034280 [THz] =     434.776793 [cm-1]
     freq (   31) =      30.762570 [THz] =    1026.128880 [cm-1]
     freq (   32) =      30.773025 [THz] =    1026.477608 [cm-1]
     freq (   33) =      30.935404 [THz] =    1031.894013 [cm-1]
     freq (   34) =      30.956841 [THz] =    1032.609082 [cm-1]
     freq (   35) =      31.833315 [THz] =    1061.845099 [cm-1]
     freq (   36) =      31.855302 [THz] =    1062.578509 [cm-1]
     freq (   37) =      31.892196 [THz] =    1063.809165 [cm-1]
     freq (   38) =      31.947226 [THz] =    1065.644768 [cm-1]
     freq (   39) =      32.250386 [THz] =    1075.757086 [cm-1]
     freq (   40) =      32.277355 [THz] =    1076.656676 [cm-1]
     freq (   41) =      32.360162 [THz] =    1079.418803 [cm-1]
     freq (   42) =      32.418642 [THz] =    1081.369488 [cm-1]
     freq (   43) =      35.840538 [THz] =    1195.511648 [cm-1]
     freq (   44) =      35.870068 [THz] =    1196.496676 [cm-1]
     freq (   45) =      36.006691 [THz] =    1201.053944 [cm-1]
     freq (   46) =      36.036405 [THz] =    1202.045090 [cm-1]
     freq (   47) =      36.116105 [THz] =    1204.703586 [cm-1]
     freq (   48) =      36.132414 [THz] =    1205.247608 [cm-1]
     freq (   49) =      36.166348 [THz] =    1206.379502 [cm-1]
     freq (   50) =      36.183061 [THz] =    1206.936994 [cm-1]
     freq (   51) =      68.223796 [THz] =    2275.700886 [cm-1]
     freq (   52) =      68.244130 [THz] =    2276.379164 [cm-1]
     freq (   53) =      68.268029 [THz] =    2277.176344 [cm-1]
     freq (   54) =      68.305712 [THz] =    2278.433307 [cm-1]
     freq (   55) =      70.101257 [THz] =    2338.326233 [cm-1]
     freq (   56) =      70.110768 [THz] =    2338.643486 [cm-1]
     freq (   57) =      70.250080 [THz] =    2343.290433 [cm-1]
     freq (   58) =      70.253125 [THz] =    2343.391995 [cm-1]
     freq (   59) =      70.804472 [THz] =    2361.782959 [cm-1]
     freq (   60) =      70.813513 [THz] =    2362.084549 [cm-1]
     freq (   61) =      70.900293 [THz] =    2364.979209 [cm-1]
     freq (   62) =      70.929504 [THz] =    2365.953583 [cm-1]
     freq (   63) =      71.412530 [THz] =    2382.065609 [cm-1]
     freq (   64) =      71.428107 [THz] =    2382.585180 [cm-1]
     freq (   65) =      71.508673 [THz] =    2385.272595 [cm-1]
     freq (   66) =      71.549797 [THz] =    2386.644346 [cm-1]

     Mode symmetry, C_1 (1)     point group:

     freq (   1-   1) =         41.8  [cm-1]   --> A
     freq (   2-   2) =         43.6  [cm-1]   --> A
     freq (   3-   3) =         54.4  [cm-1]   --> A
     freq (   4-   4) =         63.0  [cm-1]   --> A
     freq (   5-   5) =         95.9  [cm-1]   --> A
     freq (   6-   6) =         99.0  [cm-1]   --> A
     freq (   7-   7) =        158.7  [cm-1]   --> A
     freq (   8-   8) =        161.7  [cm-1]   --> A
     freq (   9-   9) =        180.9  [cm-1]   --> A
     freq (  10-  10) =        192.1  [cm-1]   --> A
     freq (  11-  11) =        203.5  [cm-1]   --> A
     freq (  12-  12) =        206.1  [cm-1]   --> A
     freq (  13-  13) =        214.8  [cm-1]   --> A
     freq (  14-  14) =        224.9  [cm-1]   --> A
     freq (  15-  15) =        240.6  [cm-1]   --> A
     freq (  16-  16) =        243.8  [cm-1]   --> A
     freq (  17-  17) =        275.1  [cm-1]   --> A
     freq (  18-  18) =        278.2  [cm-1]   --> A
     freq (  19-  19) =        283.7  [cm-1]   --> A
     freq (  20-  20) =        284.5  [cm-1]   --> A
     freq (  21-  21) =        305.3  [cm-1]   --> A
     freq (  22-  22) =        308.3  [cm-1]   --> A
     freq (  23-  23) =        309.9  [cm-1]   --> A
     freq (  24-  24) =        319.4  [cm-1]   --> A
     freq (  25-  25) =        335.3  [cm-1]   --> A
     freq (  26-  26) =        340.7  [cm-1]   --> A
     freq (  27-  27) =        427.6  [cm-1]   --> A
     freq (  28-  28) =        429.8  [cm-1]   --> A
     freq (  29-  29) =        432.0  [cm-1]   --> A
     freq (  30-  30) =        434.8  [cm-1]   --> A
     freq (  31-  31) =       1026.1  [cm-1]   --> A
     freq (  32-  32) =       1026.5  [cm-1]   --> A
     freq (  33-  33) =       1031.9  [cm-1]   --> A
     freq (  34-  34) =       1032.6  [cm-1]   --> A
     freq (  35-  35) =       1061.8  [cm-1]   --> A
     freq (  36-  36) =       1062.6  [cm-1]   --> A
     freq (  37-  37) =       1063.8  [cm-1]   --> A
     freq (  38-  38) =       1065.6  [cm-1]   --> A
     freq (  39-  39) =       1075.8  [cm-1]   --> A
     freq (  40-  40) =       1076.7  [cm-1]   --> A
     freq (  41-  41) =       1079.4  [cm-1]   --> A
     freq (  42-  42) =       1081.4  [cm-1]   --> A
     freq (  43-  43) =       1195.5  [cm-1]   --> A
     freq (  44-  44) =       1196.5  [cm-1]   --> A
     freq (  45-  45) =       1201.1  [cm-1]   --> A
     freq (  46-  46) =       1202.0  [cm-1]   --> A
     freq (  47-  47) =       1204.7  [cm-1]   --> A
     freq (  48-  48) =       1205.2  [cm-1]   --> A
     freq (  49-  49) =       1206.4  [cm-1]   --> A
     freq (  50-  50) =       1206.9  [cm-1]   --> A
     freq (  51-  51) =       2275.7  [cm-1]   --> A
     freq (  52-  52) =       2276.4  [cm-1]   --> A
     freq (  53-  53) =       2277.2  [cm-1]   --> A
     freq (  54-  54) =       2278.4  [cm-1]   --> A
     freq (  55-  55) =       2338.3  [cm-1]   --> A
     freq (  56-  56) =       2338.6  [cm-1]   --> A
     freq (  57-  57) =       2343.3  [cm-1]   --> A
     freq (  58-  58) =       2343.4  [cm-1]   --> A
     freq (  59-  59) =       2361.8  [cm-1]   --> A
     freq (  60-  60) =       2362.1  [cm-1]   --> A
     freq (  61-  61) =       2365.0  [cm-1]   --> A
     freq (  62-  62) =       2366.0  [cm-1]   --> A
     freq (  63-  63) =       2382.1  [cm-1]   --> A
     freq (  64-  64) =       2382.6  [cm-1]   --> A
     freq (  65-  65) =       2385.3  [cm-1]   --> A
     freq (  66-  66) =       2386.6  [cm-1]   --> A

     General routines

     Parallel routines

     INITIALIZATION:

     DYNAMICAL MATRIX:

                                        0.00s GPU  (  339667 calls)

                                        0.00s GPU  (   49434 calls)

      General routines

      Additional routines
                                        0.00s GPU  ( 5559546 calls)
                                        0.00s GPU  ( 5559546 calls)

   This run was terminated on:   6:46: 5  24Jul2024

   JOB DONE.