     Program PWSCF v.7.3.1 starts on 11Jul2024 at 15:30:39

     Waiting for input...
     Reading input from standard input

     Current dimensions of program PWSCF are:
     Max number of different atomic species (ntypx) = 10
     Max number of k-points (npk) =  40000
     Max angular momentum in pseudopotentials (lmaxx) =  4

     R & G space division:  proc/nbgrp/npool/nimage =      24
     Subspace diagonalization in iterative solution of the eigenvalue problem:
     a serial algorithm will be used

     Using Slab Decomposition

     Title:
     volume variation

     bravais-lattice index     =            8
     lattice parameter (alat)  =      12.5132  a.u.
     unit-cell volume          =    1391.2960 (a.u.)^3
     number of atoms/cell      =           22
     number of atomic types    =            3
     number of electrons       =        48.00
     number of Kohn-Sham states=           24
     kinetic-energy cutoff     =     100.0000  Ry
     charge density cutoff     =     800.0000  Ry
     scf convergence threshold =      1.0E-10
     mixing beta               =       0.7000
     number of iterations used =            8  plain     mixing
     energy convergence thresh.=      1.0E-05
     force convergence thresh. =      1.0E-05
     press convergence thresh. =      5.0E-01
     Exchange-correlation= PBESOL
                           (   1   4  10   8   0   0   0)
     nstep                     =          100

     celldm(1)=  12.513155  celldm(2)=   1.025571  celldm(3)=   0.692394
     celldm(4)=   0.000000  celldm(5)=   0.000000  celldm(6)=   0.000000

     crystal axes: (cart. coord. in units of alat)
               a(1) = (   1.000000   0.000000   0.000000 )
               a(2) = (   0.000000   1.025571   0.000000 )
               a(3) = (   0.000000   0.000000   0.692394 )

     reciprocal axes: (cart. coord. in units 2 pi/alat)
               b(1) = (  1.000000  0.000000  0.000000 )
               b(2) = (  0.000000  0.975067  0.000000 )
               b(3) = (  0.000000  0.000000  1.444264 )

     PseudoPot. # 1 for B  read from file:
     /home/mehlhorn/pseudos/b_pbesol_v1.4.uspp.F.UPF
     MD5 check sum: 369b69bef2c3aeed4453bd8b804fd6a8
     Pseudo is Ultrasoft + core correction, Zval =  3.0
     Generated by new atomic code, or converted to UPF format
     Using radial grid of  781 points,  4 beta functions with:
                l(1) =   0
                l(2) =   0
                l(3) =   1
                l(4) =   1
     Q(r) pseudized with  8 coefficients,  rinner =    1.100   1.100   1.100

     PseudoPot. # 2 for Ba read from file:
     /home/mehlhorn/pseudos/Ba.nc.z_10.oncvpsp4.dojo.v4-sp.upf
     MD5 check sum: c10ed334bb677c0554edec7181ce9143
     Pseudo is Norm-conserving + core correction, Zval = 10.0
     Generated using ONCVPSP code by D. R. Hamann
     Using radial grid of 1938 points,  8 beta functions with:
                l(1) =   0
                l(2) =   0
                l(3) =   1
                l(4) =   1
                l(5) =   2
                l(6) =   2
                l(7) =   3
                l(8) =   3

     PseudoPot. # 3 for H  read from file:
     /home/mehlhorn/pseudos/H_ONCV_PBEsol-1.0.upf
     MD5 check sum: 398ef8f67c0a7342c05c87c5e19ea467
     Pseudo is Norm-conserving, Zval =  1.0
     Generated using ONCVPSP code by D. R. Hamann
     Using radial grid of 1180 points,  2 beta functions with:
                l(1) =   0
                l(2) =   0

     atomic species   valence    mass     pseudopotential
     B                 3.00    10.81100     B ( 1.00)
     Ba               10.00   137.32700     Ba( 1.00)
     H                 1.00     1.00794     H ( 1.00)

      4 Sym. Ops. (no inversion) found ( 2 have fractional translation)

   Cartesian axes

     site n.     atom                  positions (alat units)
         1        Ba     tau(   1) = (   0.5000000   0.5127855   0.3462657  )
         2        Ba     tau(   2) = (   0.0000000   0.0000000   0.6923255  )
         3        B      tau(   3) = (   0.6102570   0.2453190   0.0000455  )
         4        B      tau(   4) = (   0.3897430   0.7802519   0.0000455  )
         5        B      tau(   5) = (   0.1102570   0.2674665   0.3461516  )
         6        B      tau(   6) = (   0.8897430   0.7581045   0.3461516  )
         7        H      tau(   7) = (   0.4340973   0.2996264   0.0001599  )
         8        H      tau(   8) = (   0.5659027   0.7259445   0.0001599  )
         9        H      tau(   9) = (   0.9340973   0.2131590   0.3460372  )
        10        H      tau(  10) = (   0.0659027   0.8124119   0.3460372  )
        11        H      tau(  11) = (   0.7220603   0.3933629  -0.0000058  )
        12        H      tau(  12) = (   0.2779397   0.6322081  -0.0000058  )
        13        H      tau(  13) = (   0.2220603   0.1194226   0.3462029  )
        14        H      tau(  14) = (   0.7779397   0.9061483   0.3462029  )
        15        H      tau(  15) = (   0.6392499   0.1457279   0.5404125  )
        16        H      tau(  16) = (   0.3607501   0.8798430   0.5404125  )
        17        H      tau(  17) = (   0.1392499   0.3670576   0.4981787  )
        18        H      tau(  18) = (   0.8607501   0.6585133   0.4981787  )
        19        H      tau(  19) = (   0.3605328   0.8798946   0.1519977  )
        20        H      tau(  20) = (   0.6394672   0.1456763   0.1519977  )
        21        H      tau(  21) = (   0.8605328   0.6584617   0.1941994  )
        22        H      tau(  22) = (   0.1394672   0.3671092   0.1941994  )

     number of k points=    27
                       cart. coord. in units 2pi/alat
        k(    1) = (   0.0000000   0.0000000   0.0000000), wk =   0.0312500
        k(    2) = (   0.0000000   0.0000000   0.3610660), wk =   0.0625000
        k(    3) = (   0.0000000   0.0000000  -0.7221320), wk =   0.0312500
        k(    4) = (   0.0000000   0.2437667   0.0000000), wk =   0.0625000
        k(    5) = (   0.0000000   0.2437667   0.3610660), wk =   0.1250000
        k(    6) = (   0.0000000   0.2437667  -0.7221320), wk =   0.0625000
        k(    7) = (   0.0000000  -0.4875333   0.0000000), wk =   0.0312500
        k(    8) = (   0.0000000  -0.4875333   0.3610660), wk =   0.0625000
        k(    9) = (   0.0000000  -0.4875333  -0.7221320), wk =   0.0312500
        k(   10) = (   0.2500000   0.0000000   0.0000000), wk =   0.0625000
        k(   11) = (   0.2500000   0.0000000   0.3610660), wk =   0.1250000
        k(   12) = (   0.2500000   0.0000000  -0.7221320), wk =   0.0625000
        k(   13) = (   0.2500000   0.2437667   0.0000000), wk =   0.1250000
        k(   14) = (   0.2500000   0.2437667   0.3610660), wk =   0.2500000
        k(   15) = (   0.2500000   0.2437667  -0.7221320), wk =   0.1250000
        k(   16) = (   0.2500000  -0.4875333   0.0000000), wk =   0.0625000
        k(   17) = (   0.2500000  -0.4875333   0.3610660), wk =   0.1250000
        k(   18) = (   0.2500000  -0.4875333  -0.7221320), wk =   0.0625000
        k(   19) = (  -0.5000000   0.0000000   0.0000000), wk =   0.0312500
        k(   20) = (  -0.5000000   0.0000000   0.3610660), wk =   0.0625000
        k(   21) = (  -0.5000000   0.0000000  -0.7221320), wk =   0.0312500
        k(   22) = (  -0.5000000   0.2437667   0.0000000), wk =   0.0625000
        k(   23) = (  -0.5000000   0.2437667   0.3610660), wk =   0.1250000
        k(   24) = (  -0.5000000   0.2437667  -0.7221320), wk =   0.0625000
        k(   25) = (  -0.5000000  -0.4875333   0.0000000), wk =   0.0312500
        k(   26) = (  -0.5000000  -0.4875333   0.3610660), wk =   0.0625000
        k(   27) = (  -0.5000000  -0.4875333  -0.7221320), wk =   0.0312500

     Initial potential from superposition of free atoms

     starting charge      47.9682, renormalised to      48.0000
     Starting wfcs are   42 randomized atomic wfcs

     Self-consistent Calculation

     iteration #  1     ecut=   100.00 Ry     beta= 0.70
     Davidson diagonalization with overlap
     ethr =  1.00E-02,  avg # of iterations =  2.0

     total energy              =    -155.91017186 Ry
     estimated scf accuracy    <       2.14584273 Ry

[...]

     End of self-consistent calculation

          k = 0.0000 0.0000 0.0000 ( 23525 PWs)   bands (ev):

   -23.5212 -23.5100  -9.1532  -9.0478  -8.8146  -8.7676  -8.7407  -8.6648
    -5.9095  -4.9178  -4.1281  -3.9924  -1.5926  -0.6604  -0.5395  -0.2228
     0.1786   0.2118   0.2756   0.3753   0.5534   0.9860   0.9949   1.0387

[...]

          k =-0.5000 0.0000 0.0000 ( 23496 PWs)   bands (ev):

[...]

     highest occupied level (ev):     1.0514

!    total energy              =    -156.47292476 Ry
     estimated scf accuracy    <          4.3E-11 Ry

     The total energy is the sum of the following terms:
     one-electron contribution =     -20.07394018 Ry
     hartree contribution      =      24.95433760 Ry
     xc contribution           =     -49.27592098 Ry
     ewald contribution        =    -112.07740120 Ry

     convergence has been achieved in  11 iterations

     Forces acting on atoms (cartesian axes, Ry/au):

     atom    1 type  2   force =     0.00000000    0.00000000    0.00001471
     atom    2 type  2   force =     0.00000000    0.00000000   -0.00001471
     atom    3 type  1   force =    -0.00017500   -0.00084245   -0.00001155
     atom    4 type  1   force =     0.00017500    0.00084245   -0.00001155
     atom    5 type  1   force =    -0.00017500    0.00084245    0.00001155
     atom    6 type  1   force =     0.00017500   -0.00084245    0.00001155
     atom    7 type  3   force =    -0.00697239    0.00175333   -0.00001445
     atom    8 type  3   force =     0.00697239   -0.00175333   -0.00001445
     atom    9 type  3   force =    -0.00697239   -0.00175333    0.00001445
     atom   10 type  3   force =     0.00697239    0.00175333    0.00001445
     atom   11 type  3   force =     0.00460405    0.00556052    0.00000447
     atom   12 type  3   force =    -0.00460405   -0.00556052    0.00000447
     atom   13 type  3   force =     0.00460405   -0.00556052   -0.00000447
     atom   14 type  3   force =    -0.00460405    0.00556052   -0.00000447
     atom   15 type  3   force =     0.00087886   -0.00410355   -0.00622016
     atom   16 type  3   force =    -0.00087886    0.00410355   -0.00622016
     atom   17 type  3   force =     0.00087886    0.00410355    0.00622016
     atom   18 type  3   force =    -0.00087886   -0.00410355    0.00622016
     atom   19 type  3   force =    -0.00083767    0.00408423    0.00620847
     atom   20 type  3   force =     0.00083767   -0.00408423    0.00620847
     atom   21 type  3   force =    -0.00083767   -0.00408423   -0.00620847
     atom   22 type  3   force =     0.00083767    0.00408423   -0.00620847

     Total force =     0.029447     Total SCF correction =     0.000004

     Computing stress (Cartesian axis) and pressure

          total   stress  (Ry/bohr**3)                   (kbar)     P=       16.15
   0.00010194   0.00000000   0.00000000           15.00        0.00        0.00
   0.00000000   0.00010407   0.00000000            0.00       15.31        0.00
[...]
     0.99358865     0.00000000     0.00000000
     0.00000000     1.02648413     0.00000000
     0.00000000     0.00000000     0.69624202
New lattice vectors in INITIAL alat:
     0.99358865     0.00000000     0.00000000
     0.00000000     1.02648413     0.00000000
     0.00000000     0.00000000     0.69624202
New lattice vectors in NEW alat (for information only):
     1.00000000     0.00000000     0.00000000
     0.00000000     1.03310774     0.00000000
     0.00000000     0.00000000     0.70073468
Discrepancy in bohr =     0.000000    0.000000    0.000000
     new conv_thr            =            1.0E-12 Ry

     new unit-cell volume =   1391.29603 a.u.^3 (   206.16880 Ang^3 )
     density =      2.69033 g/cm^3

[...]

ATOMIC_POSITIONS (crystal)
Ba               0.5000000000        0.5000000000        0.5000047404
Ba               0.0000000000        0.0000000000        0.9999952596
B                0.6066863448        0.2368520549       -0.0000024617
B                0.3933136552        0.7631479451       -0.0000024617
B                0.1066863448        0.2631479451        0.5000024617
B                0.8933136552        0.7368520549        0.5000024617
H                0.4289458936        0.2929886837       -0.0000121714
H                0.5710541064        0.7070113163       -0.0000121714
H                0.9289458936        0.2070113163        0.5000121714
H                0.0710541064        0.7929886837        0.5000121714
H                0.7226548575        0.3804636462        0.0000193536
H                0.2773451425        0.6195363538        0.0000193536
H                0.2226548575        0.1195363538        0.4999806464
H                0.7773451425        0.8804636462        0.4999806464
H                0.6346896106        0.1386420751        0.7799618293
H                0.3653103894        0.8613579249        0.7799618293
H                0.1346896106        0.3613579249        0.7200381707
H                0.8653103894        0.6386420751        0.7200381707
H                0.3653298108        0.8613521130        0.2200405295
H                0.6346701892        0.1386478870        0.2200405295
H                0.8653298108        0.6386478870        0.2799594705
H                0.1346701892        0.3613521130        0.2799594705

     Writing config-only to output data dir ./pwscf.save/ :
     XML data file
     NEW-OLD atomic charge density approx. for the potential

[...]

     Threshold (ethr) on eigenvalues was too large:
     Diagonalizing with lowered threshold

     Davidson diagonalization with overlap
     ethr =  2.04E-13,  avg # of iterations =  4.1

[...]

     Volume is kept fixed: isostatic pressure set to zero
     Energy error            =      1.7E-09 Ry
     Gradient error          =      9.3E-06 Ry/Bohr
     Cell gradient error     =      9.6E-04 kbar
ibrav =      8
 celldm(1) =     12.43292860
 celldm(2) =      1.03310774
 celldm(3) =      0.70073468
Input lattice vectors:
     0.99358865     0.00000000     0.00000000
     0.00000000     1.02648413     0.00000000
     0.00000000     0.00000000     0.69624202
New lattice vectors in INITIAL alat:
     0.99358865     0.00000000     0.00000000
     0.00000000     1.02648413     0.00000000
     0.00000000     0.00000000     0.69624202
New lattice vectors in NEW alat (for information only):
     1.00000000     0.00000000     0.00000000
     0.00000000     1.03310774     0.00000000
     0.00000000     0.00000000     0.70073468
Discrepancy in bohr =     0.000000    0.000000    0.000000

     bfgs converged in  55 scf cycles and  54 bfgs steps
     (criteria: energy <  1.0E-05 Ry, force <  1.0E-05 Ry/Bohr, cell <  5.0E-01 kbar)

     End of BFGS Geometry Optimization

     Final enthalpy           =    -156.4742804012 Ry

     File ./pwscf.bfgs deleted, as requested
Begin final coordinates
     new unit-cell volume =   1391.29603 a.u.^3 (   206.16880 Ang^3 )
     density =      2.69033 g/cm^3

CELL_PARAMETERS (alat= 12.51315479)
   0.993588652   0.000000000   0.000000000
   0.000000000   1.026484130   0.000000000
   0.000000000   0.000000000   0.696242025

ATOMIC_POSITIONS (crystal)
Ba               0.5000000000        0.5000000000        0.5000047404
Ba               0.0000000000        0.0000000000        0.9999952596
B                0.6066863448        0.2368520549       -0.0000024617
B                0.3933136552        0.7631479451       -0.0000024617
B                0.1066863448        0.2631479451        0.5000024617
B                0.8933136552        0.7368520549        0.5000024617
H                0.4289458936        0.2929886837       -0.0000121714
H                0.5710541064        0.7070113163       -0.0000121714
H                0.9289458936        0.2070113163        0.5000121714
H                0.0710541064        0.7929886837        0.5000121714
H                0.7226548575        0.3804636462        0.0000193536
H                0.2773451425        0.6195363538        0.0000193536
H                0.2226548575        0.1195363538        0.4999806464
H                0.7773451425        0.8804636462        0.4999806464
H                0.6346896106        0.1386420751        0.7799618293
H                0.3653103894        0.8613579249        0.7799618293
H                0.1346896106        0.3613579249        0.7200381707
H                0.8653103894        0.6386420751        0.7200381707
H                0.3653298108        0.8613521130        0.2200405295
H                0.6346701892        0.1386478870        0.2200405295
H                0.8653298108        0.6386478870        0.2799594705
H                0.1346701892        0.3613521130        0.2799594705
End final coordinates

     Writing config-only to output data dir ./pwscf.save/ :
     XML data file

     Final scf calculation at the relaxed structure.
     The G-vectors are recalculated for the final unit cell
     Results may differ from those at the preceding step.

     Using Slab Decomposition

     Title:
     volume variation

     bravais-lattice index     =            8
     lattice parameter (alat)  =      12.5132  a.u.
     unit-cell volume          =    1391.2960 (a.u.)^3
     number of atoms/cell      =           22
     number of atomic types    =            3
     number of electrons       =        48.00
     number of Kohn-Sham states=           24
     kinetic-energy cutoff     =     100.0000  Ry
     charge density cutoff     =     800.0000  Ry
     scf convergence threshold =      1.0E-12
     mixing beta               =       0.7000
     number of iterations used =            8  plain     mixing
     press convergence thresh. =      5.0E-01
     Exchange-correlation= PBESOL
                           (   1   4  10   8   0   0   0)

     celldm(1)=  12.513155  celldm(2)=   1.025571  celldm(3)=   0.692394
     celldm(4)=   0.000000  celldm(5)=   0.000000  celldm(6)=   0.000000

     crystal axes: (cart. coord. in units of alat)
               a(1) = (   0.993589   0.000000   0.000000 )
               a(2) = (   0.000000   1.026484   0.000000 )
               a(3) = (   0.000000   0.000000   0.696242 )

     reciprocal axes: (cart. coord. in units 2 pi/alat)
               b(1) = (  1.006453  0.000000  0.000000 )
               b(2) = (  0.000000  0.974199  0.000000 )
               b(3) = (  0.000000  0.000000  1.436282 )

     PseudoPot. # 1 for B  read from file:
     /home/mehlhorn/pseudos/b_pbesol_v1.4.uspp.F.UPF
     MD5 check sum: 369b69bef2c3aeed4453bd8b804fd6a8
     Pseudo is Ultrasoft + core correction, Zval =  3.0
     Generated by new atomic code, or converted to UPF format
     Using radial grid of  781 points,  4 beta functions with:
                l(1) =   0
                l(2) =   0
                l(3) =   1
                l(4) =   1
     Q(r) pseudized with  8 coefficients,  rinner =    1.100   1.100   1.100

     PseudoPot. # 2 for Ba read from file:
     /home/mehlhorn/pseudos/Ba.nc.z_10.oncvpsp4.dojo.v4-sp.upf
     MD5 check sum: c10ed334bb677c0554edec7181ce9143
     Pseudo is Norm-conserving + core correction, Zval = 10.0
     Generated using ONCVPSP code by D. R. Hamann
     Using radial grid of 1938 points,  8 beta functions with:
                l(1) =   0
                l(2) =   0
                l(3) =   1
                l(4) =   1
                l(5) =   2
                l(6) =   2
                l(7) =   3
                l(8) =   3

     PseudoPot. # 3 for H  read from file:
     /home/mehlhorn/pseudos/H_ONCV_PBEsol-1.0.upf
     MD5 check sum: 398ef8f67c0a7342c05c87c5e19ea467
     Pseudo is Norm-conserving, Zval =  1.0
     Generated using ONCVPSP code by D. R. Hamann
     Using radial grid of 1180 points,  2 beta functions with:
                l(1) =   0
                l(2) =   0

     atomic species   valence    mass     pseudopotential
     B                 3.00    10.81100     B ( 1.00)
     Ba               10.00   137.32700     Ba( 1.00)
     H                 1.00     1.00794     H ( 1.00)

      4 Sym. Ops. (no inversion) found ( 2 have fractional translation)

   Cartesian axes

     site n.     atom                  positions (alat units)
         1        Ba     tau(   1) = (   0.4967943   0.5132421   0.3481243  )
         2        Ba     tau(   2) = (   0.0000000   0.0000000   0.6962387  )
         3        B      tau(   3) = (   0.6027967   0.2431249  -0.0000017  )
         4        B      tau(   4) = (   0.3907920   0.7833593  -0.0000017  )
         5        B      tau(   5) = (   0.1060023   0.2701172   0.3481227  )
         6        B      tau(   6) = (   0.8875863   0.7563669   0.3481227  )
         7        H      tau(   7) = (   0.4261958   0.3007482  -0.0000085  )
         8        H      tau(   8) = (   0.5673929   0.7257359  -0.0000085  )
         9        H      tau(   9) = (   0.9229901   0.2124938   0.3481295  )
        10        H      tau(  10) = (   0.0705986   0.8139903   0.3481295  )
        11        H      tau(  11) = (   0.7180217   0.3905399   0.0000135  )
        12        H      tau(  12) = (   0.2755670   0.6359442   0.0000135  )
        13        H      tau(  13) = (   0.2212273   0.1227022   0.3481075  )
        14        H      tau(  14) = (   0.7723613   0.9037820   0.3481075  )
        15        H      tau(  15) = (   0.6306204   0.1423139   0.5430422  )
        16        H      tau(  16) = (   0.3629683   0.8841702   0.5430422  )
        17        H      tau(  17) = (   0.1338261   0.3709282   0.5013208  )
        18        H      tau(  18) = (   0.8597626   0.6555560   0.5013208  )
        19        H      tau(  19) = (   0.3629876   0.8841643   0.1532015  )
        20        H      tau(  20) = (   0.6306011   0.1423199   0.1532015  )
        21        H      tau(  21) = (   0.8597819   0.6555619   0.1949195  )
        22        H      tau(  22) = (   0.1338068   0.3709222   0.1949195  )

     number of k points=    27
                       cart. coord. in units 2pi/alat
        k(    1) = (   0.0000000   0.0000000   0.0000000), wk =   0.0312500
        k(    2) = (   0.0000000   0.0000000   0.3590705), wk =   0.0625000
        k(    3) = (   0.0000000   0.0000000  -0.7181411), wk =   0.0312500
        k(    4) = (   0.0000000   0.2435498   0.0000000), wk =   0.0625000
        k(    5) = (   0.0000000   0.2435498   0.3590705), wk =   0.1250000
        k(    6) = (   0.0000000   0.2435498  -0.7181411), wk =   0.0625000
        k(    7) = (   0.0000000  -0.4870996   0.0000000), wk =   0.0312500
        k(    8) = (   0.0000000  -0.4870996   0.3590705), wk =   0.0625000
        k(    9) = (   0.0000000  -0.4870996  -0.7181411), wk =   0.0312500
        k(   10) = (   0.2516132   0.0000000   0.0000000), wk =   0.0625000
        k(   11) = (   0.2516132   0.0000000   0.3590705), wk =   0.1250000
        k(   12) = (   0.2516132   0.0000000  -0.7181411), wk =   0.0625000
        k(   13) = (   0.2516132   0.2435498   0.0000000), wk =   0.1250000
        k(   14) = (   0.2516132   0.2435498   0.3590705), wk =   0.2500000
        k(   15) = (   0.2516132   0.2435498  -0.7181411), wk =   0.1250000
        k(   16) = (   0.2516132  -0.4870996   0.0000000), wk =   0.0625000
        k(   17) = (   0.2516132  -0.4870996   0.3590705), wk =   0.1250000
        k(   18) = (   0.2516132  -0.4870996  -0.7181411), wk =   0.0625000
        k(   19) = (  -0.5032264   0.0000000   0.0000000), wk =   0.0312500
        k(   20) = (  -0.5032264   0.0000000   0.3590705), wk =   0.0625000
        k(   21) = (  -0.5032264   0.0000000  -0.7181411), wk =   0.0312500
        k(   22) = (  -0.5032264   0.2435498   0.0000000), wk =   0.0625000
        k(   23) = (  -0.5032264   0.2435498   0.3590705), wk =   0.1250000
        k(   24) = (  -0.5032264   0.2435498  -0.7181411), wk =   0.0625000
        k(   25) = (  -0.5032264  -0.4870996   0.0000000), wk =   0.0312500
        k(   26) = (  -0.5032264  -0.4870996   0.3590705), wk =   0.0625000
        k(   27) = (  -0.5032264  -0.4870996  -0.7181411), wk =   0.0312500

     Initial potential from superposition of free atoms

     starting charge      47.9682, renormalised to      48.0000
     Starting wfcs are   42 randomized atomic wfcs

     Self-consistent Calculation

[...]

     total energy              =    -156.47428049 Ry
     estimated scf accuracy    <          1.6E-12 Ry

     iteration # 13     ecut=   100.00 Ry     beta= 0.70
     Davidson diagonalization with overlap
     ethr =  1.00E-13,  avg # of iterations =  1.0

     End of self-consistent calculation

[...]

          k = 0.2516-0.4871-0.7181 ( 23496 PWs)   bands (ev):

[...]

          k =-0.5032-0.4871-0.7181 ( 23480 PWs)   bands (ev):

   -23.5053 -23.5053  -9.2548  -9.2548  -8.8902  -8.8902  -8.8105  -8.8105
    -4.7261  -4.7261  -4.1768  -4.1768  -1.3652  -1.3652  -0.6201  -0.6201
     0.5014   0.5014   0.5167   0.5167   0.7093   0.7093   0.9361   0.9361

     highest occupied level (ev):     1.1249

!    total energy              =    -156.47428049 Ry
     estimated scf accuracy    <          9.0E-14 Ry

     The total energy is the sum of the following terms:
     one-electron contribution =     -18.96606649 Ry
     hartree contribution      =      24.40320478 Ry
     xc contribution           =     -49.19112897 Ry
     ewald contribution        =    -112.72028980 Ry

     convergence has been achieved in  13 iterations

     Forces acting on atoms (cartesian axes, Ry/au):

     atom    1 type  2   force =     0.00000000    0.00000000   -0.00000854
     atom    2 type  2   force =     0.00000000    0.00000000    0.00000854
     atom    3 type  1   force =     0.00000169    0.00000086    0.00000599
     atom    4 type  1   force =    -0.00000169   -0.00000086    0.00000599
     atom    5 type  1   force =     0.00000169   -0.00000086   -0.00000599
     atom    6 type  1   force =    -0.00000169    0.00000086   -0.00000599
     atom    7 type  3   force =    -0.00000100   -0.00000193   -0.00000072
     atom    8 type  3   force =     0.00000100    0.00000193   -0.00000072
     atom    9 type  3   force =    -0.00000100    0.00000193    0.00000072
     atom   10 type  3   force =     0.00000100   -0.00000193    0.00000072
     atom   11 type  3   force =     0.00000303    0.00000277   -0.00000926
     atom   12 type  3   force =    -0.00000303   -0.00000277   -0.00000926
     atom   13 type  3   force =     0.00000303   -0.00000277    0.00000926
     atom   14 type  3   force =    -0.00000303    0.00000277    0.00000926
     atom   15 type  3   force =    -0.00000418    0.00000650    0.00000195
     atom   16 type  3   force =     0.00000418   -0.00000650    0.00000195
     atom   17 type  3   force =    -0.00000418   -0.00000650   -0.00000195
     atom   18 type  3   force =     0.00000418    0.00000650   -0.00000195
     atom   19 type  3   force =    -0.00000002    0.00000743    0.00000462
     atom   20 type  3   force =     0.00000002   -0.00000743    0.00000462
     atom   21 type  3   force =    -0.00000002   -0.00000743   -0.00000462
     atom   22 type  3   force =     0.00000002    0.00000743   -0.00000462

     Total force =     0.000036     Total SCF correction =     0.000000

     Computing stress (Cartesian axis) and pressure

          total   stress  (Ry/bohr**3)                   (kbar)     P=        4.88
   0.00003315   0.00000000   0.00000000            4.88        0.00        0.00
   0.00000000   0.00003316   0.00000000            0.00        4.88        0.00
   0.00000000   0.00000000   0.00003315            0.00        0.00        4.88

     Writing all to output data dir ./pwscf.save/ :
     XML data file, charge density, pseudopotentials, collected wavefunctions

     General routines

     Parallel routines

   This run was terminated on:  17:46: 7  11Jul2024

   JOB DONE.