     Program PWSCF v.7.3.1 starts on 12Jul2024 at 15: 3:38

     Waiting for input...
     Reading input from standard input

     Current dimensions of program PWSCF are:
     Max number of different atomic species (ntypx) = 10
     Max number of k-points (npk) =  40000
     Max angular momentum in pseudopotentials (lmaxx) =  4

     R & G space division:  proc/nbgrp/npool/nimage =      12
     Subspace diagonalization in iterative solution of the eigenvalue problem:
     a serial algorithm will be used

     Using Slab Decomposition

     Title:
     volume variation

     bravais-lattice index     =            8
     lattice parameter (alat)  =      12.7442  a.u.
     unit-cell volume          =    1469.7794 (a.u.)^3
     number of atoms/cell      =           22
     number of atomic types    =            3
     number of electrons       =        48.00
     number of Kohn-Sham states=           24
     kinetic-energy cutoff     =     100.0000  Ry
     charge density cutoff     =     800.0000  Ry
     scf convergence threshold =      1.0E-10
     mixing beta               =       0.7000
     number of iterations used =            8  plain     mixing
     energy convergence thresh.=      1.0E-05
     force convergence thresh. =      1.0E-05
     press convergence thresh. =      5.0E-01
     Exchange-correlation= PBESOL
                           (   1   4  10   8   0   0   0)
     nstep                     =          300

     celldm(1)=  12.744154  celldm(2)=   1.025571  celldm(3)=   0.692394
     celldm(4)=   0.000000  celldm(5)=   0.000000  celldm(6)=   0.000000

     crystal axes: (cart. coord. in units of alat)
               a(1) = (   1.000000   0.000000   0.000000 )
               a(2) = (   0.000000   1.025571   0.000000 )
               a(3) = (   0.000000   0.000000   0.692394 )

     reciprocal axes: (cart. coord. in units 2 pi/alat)
               b(1) = (  1.000000  0.000000  0.000000 )
               b(2) = (  0.000000  0.975067  0.000000 )
               b(3) = (  0.000000  0.000000  1.444264 )

     PseudoPot. # 1 for B  read from file:
     /home/mehlhorn/pseudos/b_pbesol_v1.4.uspp.F.UPF
     MD5 check sum: 369b69bef2c3aeed4453bd8b804fd6a8
     Pseudo is Ultrasoft + core correction, Zval =  3.0
     Generated by new atomic code, or converted to UPF format
     Using radial grid of  781 points,  4 beta functions with:
                l(1) =   0
                l(2) =   0
                l(3) =   1
                l(4) =   1
     Q(r) pseudized with  8 coefficients,  rinner =    1.100   1.100   1.100

     PseudoPot. # 2 for Ba read from file:
     /home/mehlhorn/pseudos/Ba.nc.z_10.oncvpsp4.dojo.v4-sp.upf
     MD5 check sum: c10ed334bb677c0554edec7181ce9143
     Pseudo is Norm-conserving + core correction, Zval = 10.0
     Generated using ONCVPSP code by D. R. Hamann
     Using radial grid of 1938 points,  8 beta functions with:
                l(1) =   0
                l(2) =   0
                l(3) =   1
                l(4) =   1
                l(5) =   2
                l(6) =   2
                l(7) =   3
                l(8) =   3

     PseudoPot. # 3 for H  read from file:
     /home/mehlhorn/pseudos/H_ONCV_PBEsol-1.0.upf
     MD5 check sum: 398ef8f67c0a7342c05c87c5e19ea467
     Pseudo is Norm-conserving, Zval =  1.0
     Generated using ONCVPSP code by D. R. Hamann
     Using radial grid of 1180 points,  2 beta functions with:
                l(1) =   0
                l(2) =   0

     atomic species   valence    mass     pseudopotential
     B                 3.00    10.81100     B ( 1.00)
     Ba               10.00   137.32700     Ba( 1.00)
     H                 1.00     1.00794     H ( 1.00)

      4 Sym. Ops. (no inversion) found ( 2 have fractional translation)

   Cartesian axes

     site n.     atom                  positions (alat units)
         1        Ba     tau(   1) = (   0.5000000   0.5127855   0.3462657  )
         2        Ba     tau(   2) = (   0.0000000   0.0000000   0.6923255  )
         3        B      tau(   3) = (   0.6102570   0.2453190   0.0000455  )
         4        B      tau(   4) = (   0.3897430   0.7802519   0.0000455  )
         5        B      tau(   5) = (   0.1102570   0.2674665   0.3461516  )
         6        B      tau(   6) = (   0.8897430   0.7581045   0.3461516  )
         7        H      tau(   7) = (   0.4340973   0.2996264   0.0001599  )
         8        H      tau(   8) = (   0.5659027   0.7259445   0.0001599  )
         9        H      tau(   9) = (   0.9340973   0.2131590   0.3460372  )
        10        H      tau(  10) = (   0.0659027   0.8124119   0.3460372  )
        11        H      tau(  11) = (   0.7220603   0.3933629  -0.0000058  )
        12        H      tau(  12) = (   0.2779397   0.6322081  -0.0000058  )
        13        H      tau(  13) = (   0.2220603   0.1194226   0.3462029  )
        14        H      tau(  14) = (   0.7779397   0.9061483   0.3462029  )
        15        H      tau(  15) = (   0.6392499   0.1457279   0.5404125  )
        16        H      tau(  16) = (   0.3607501   0.8798430   0.5404125  )
        17        H      tau(  17) = (   0.1392499   0.3670576   0.4981787  )
        18        H      tau(  18) = (   0.8607501   0.6585133   0.4981787  )
        19        H      tau(  19) = (   0.3605328   0.8798946   0.1519977  )
        20        H      tau(  20) = (   0.6394672   0.1456763   0.1519977  )
        21        H      tau(  21) = (   0.8605328   0.6584617   0.1941994  )
        22        H      tau(  22) = (   0.1394672   0.3671092   0.1941994  )

     number of k points=    27
                       cart. coord. in units 2pi/alat
        k(    1) = (   0.0000000   0.0000000   0.0000000), wk =   0.0312500
        k(    2) = (   0.0000000   0.0000000   0.3610660), wk =   0.0625000
        k(    3) = (   0.0000000   0.0000000  -0.7221320), wk =   0.0312500
        k(    4) = (   0.0000000   0.2437667   0.0000000), wk =   0.0625000
        k(    5) = (   0.0000000   0.2437667   0.3610660), wk =   0.1250000
        k(    6) = (   0.0000000   0.2437667  -0.7221320), wk =   0.0625000
        k(    7) = (   0.0000000  -0.4875333   0.0000000), wk =   0.0312500
        k(    8) = (   0.0000000  -0.4875333   0.3610660), wk =   0.0625000
        k(    9) = (   0.0000000  -0.4875333  -0.7221320), wk =   0.0312500
        k(   10) = (   0.2500000   0.0000000   0.0000000), wk =   0.0625000
        k(   11) = (   0.2500000   0.0000000   0.3610660), wk =   0.1250000
        k(   12) = (   0.2500000   0.0000000  -0.7221320), wk =   0.0625000
        k(   13) = (   0.2500000   0.2437667   0.0000000), wk =   0.1250000
        k(   14) = (   0.2500000   0.2437667   0.3610660), wk =   0.2500000
        k(   15) = (   0.2500000   0.2437667  -0.7221320), wk =   0.1250000
        k(   16) = (   0.2500000  -0.4875333   0.0000000), wk =   0.0625000
        k(   17) = (   0.2500000  -0.4875333   0.3610660), wk =   0.1250000
        k(   18) = (   0.2500000  -0.4875333  -0.7221320), wk =   0.0625000
        k(   19) = (  -0.5000000   0.0000000   0.0000000), wk =   0.0312500
        k(   20) = (  -0.5000000   0.0000000   0.3610660), wk =   0.0625000
        k(   21) = (  -0.5000000   0.0000000  -0.7221320), wk =   0.0312500
        k(   22) = (  -0.5000000   0.2437667   0.0000000), wk =   0.0625000
        k(   23) = (  -0.5000000   0.2437667   0.3610660), wk =   0.1250000
        k(   24) = (  -0.5000000   0.2437667  -0.7221320), wk =   0.0625000
        k(   25) = (  -0.5000000  -0.4875333   0.0000000), wk =   0.0312500
        k(   26) = (  -0.5000000  -0.4875333   0.3610660), wk =   0.0625000
        k(   27) = (  -0.5000000  -0.4875333  -0.7221320), wk =   0.0312500

     Initial potential from superposition of free atoms

     starting charge      47.9682, renormalised to      48.0000
     Starting wfcs are   42 randomized atomic wfcs

     Self-consistent Calculation

     iteration #  1     ecut=   100.00 Ry     beta= 0.70
     Davidson diagonalization with overlap
     ethr =  1.00E-02,  avg # of iterations =  2.0

     total energy              =    -155.94256575 Ry
     estimated scf accuracy    <       2.02084652 Ry

[...]

     End of self-consistent calculation

          k = 0.0000 0.0000 0.0000 ( 24781 PWs)   bands (ev):

   -24.0713 -24.0632  -9.5785  -9.4981  -9.3183  -9.2829  -9.2516  -9.1930
    -6.0672  -5.1241  -4.4936  -4.3368  -1.7864  -0.8755  -0.8401  -0.4657
    -0.0961  -0.0880  -0.0517   0.0854   0.2433   0.6476   0.6693   0.7105

[...]

          k =-0.5000 0.0000 0.0000 ( 24784 PWs)   bands (ev):

[...]

     highest occupied level (ev):     0.7105

!    total energy              =    -156.47231897 Ry
     estimated scf accuracy    <          5.1E-11 Ry

     The total energy is the sum of the following terms:
     one-electron contribution =     -23.07341686 Ry
     hartree contribution      =      25.64179203 Ry
     xc contribution           =     -48.99479855 Ry
     ewald contribution        =    -110.04589558 Ry

     convergence has been achieved in  11 iterations

     Forces acting on atoms (cartesian axes, Ry/au):

     atom    1 type  2   force =     0.00000000    0.00000000    0.00001165
     atom    2 type  2   force =     0.00000000    0.00000000   -0.00001165
     atom    3 type  1   force =     0.00018102    0.00090092   -0.00001375
     atom    4 type  1   force =    -0.00018102   -0.00090092   -0.00001375
     atom    5 type  1   force =     0.00018102   -0.00090092    0.00001375
     atom    6 type  1   force =    -0.00018102    0.00090092    0.00001375
     atom    7 type  3   force =     0.00779052   -0.00197747   -0.00001876
     atom    8 type  3   force =    -0.00779052    0.00197747   -0.00001876
     atom    9 type  3   force =     0.00779052    0.00197747    0.00001876
     atom   10 type  3   force =    -0.00779052   -0.00197747    0.00001876
     atom   11 type  3   force =    -0.00515123   -0.00622313    0.00000689
     atom   12 type  3   force =     0.00515123    0.00622313    0.00000689
     atom   13 type  3   force =    -0.00515123    0.00622313   -0.00000689
     atom   14 type  3   force =     0.00515123   -0.00622313   -0.00000689
     atom   15 type  3   force =    -0.00094286    0.00457434    0.00695115
     atom   16 type  3   force =     0.00094286   -0.00457434    0.00695115
     atom   17 type  3   force =    -0.00094286   -0.00457434   -0.00695115
     atom   18 type  3   force =     0.00094286    0.00457434   -0.00695115
     atom   19 type  3   force =     0.00099542   -0.00459410   -0.00695856
     atom   20 type  3   force =    -0.00099542    0.00459410   -0.00695856
     atom   21 type  3   force =     0.00099542    0.00459410    0.00695856
     atom   22 type  3   force =    -0.00099542   -0.00459410    0.00695856

     Total force =     0.032946     Total SCF correction =     0.000004

     Computing stress (Cartesian axis) and pressure

          total   stress  (Ry/bohr**3)                   (kbar)     P=      -17.16
  -0.00010855   0.00000000   0.00000000          -15.97        0.00        0.00
   0.00000000  -0.00011076   0.00000000            0.00      -16.29        0.00
   0.00000000   0.00000000  -0.00013057            0.00        0.00      -19.21

     Volume is kept fixed: isostatic pressure set to zero

     BFGS Geometry Optimization
     Energy error            =      0.0E+00 Ry
     Gradient error          =      7.8E-03 Ry/Bohr
     Cell gradient error     =      2.1E+00 kbar

     number of scf cycles    =   1
     number of bfgs steps    =   0

     enthalpy           new  =    -156.4723189653 Ry

     new trust radius        =       0.0083975121 bohr
ibrav =      8
 celldm(1) =     12.74672905
 celldm(2) =      1.02551417
 celldm(3) =      0.69201296
Input lattice vectors:
     1.00020204     0.00000000     0.00000000
     0.00000000     1.02572136     0.00000000
     0.00000000     0.00000000     0.69215277
New lattice vectors in INITIAL alat:
     1.00020204     0.00000000     0.00000000
     0.00000000     1.02572136     0.00000000
     0.00000000     0.00000000     0.69215277
New lattice vectors in NEW alat (for information only):
     1.00000000     0.00000000     0.00000000
     0.00000000     1.02551417     0.00000000
     0.00000000     0.00000000     0.69201296
Discrepancy in bohr =     0.000000    0.000000    0.000000
     new conv_thr            =            1.0E-10 Ry

     new unit-cell volume =   1469.77940 a.u.^3 (   217.79884 Ang^3 )
     density =      2.54667 g/cm^3

CELL_PARAMETERS (alat= 12.74415427)
   1.000202036   0.000000000   0.000000000
   0.000000000   1.025721356   0.000000000
   0.000000000   0.000000000   0.692152773

ATOMIC_POSITIONS (crystal)
Ba               0.5000000000        0.5000000000        0.5001004859
Ba               0.0000000000        0.0000000000        0.9998995141
B                0.6102712201        0.2392713101        0.0000640983
B                0.3897287799        0.7607286899        0.0000640983
B                0.1102712201        0.2607286899        0.4999359017
B                0.8897287799        0.7392713101        0.4999359017
H                0.4347085537        0.2920044304        0.0002288068
H                0.5652914463        0.7079955696        0.0002288068
H                0.9347085537        0.2079955696        0.4997711932
H                0.0652914463        0.7920044304        0.4997711932
H                0.7216560645        0.3830788722       -0.0000075902
H                0.2783439355        0.6169211278       -0.0000075902
H                0.2216560645        0.1169211278        0.5000075902
H                0.7783439355        0.8830788722        0.5000075902
H                0.6391759411        0.1424443816        0.7812861713
H                0.3608240589        0.8575556184        0.7812861713
H                0.1391759411        0.3575556184        0.7187138287
H                0.8608240589        0.6424443816        0.7187138287
H                0.3606109388        0.8576044162        0.2187362511
H                0.6393890612        0.1423955838        0.2187362511
H                0.8606109388        0.6423955838        0.2812637489
H                0.1393890612        0.3576044162        0.2812637489

     Writing config-only to output data dir ./pwscf.save/ :
     XML data file
     NEW-OLD atomic charge density approx. for the potential

[...]

     Volume is kept fixed: isostatic pressure set to zero
     Energy error            =      8.9E-04 Ry
     Gradient error          =      5.0E-03 Ry/Bohr
     Cell gradient error     =      1.6E+00 kbar

[...]

     enthalpy           old  =    -156.4723189653 Ry
     enthalpy           new  =    -156.4732094150 Ry

     CASE: enthalpy          _new < enthalpy          _old

[...]

     Threshold (ethr) on eigenvalues was too large:
     Diagonalizing with lowered threshold

     Davidson diagonalization with overlap
     ethr =  4.01E-09,  avg # of iterations =  3.0

[...]

     small trust_radius: resetting bfgs history

[...]

     Volume is kept fixed: isostatic pressure set to zero
     Energy error            =      7.2E-09 Ry
     Gradient error          =      2.3E-05 Ry/Bohr
     Cell gradient error     =      4.2E-03 kbar

     number of scf cycles    =  56
     number of bfgs steps    =  55

     enthalpy           old  =    -156.4742082862 Ry
     enthalpy           new  =    -156.4742082933 Ry

     CASE: enthalpy          _new < enthalpy          _old

     WARNING: bfgs curvature condition failed, Theta= 0.950
     Message from routine bfgs :: compute_trust_radius:
     history already reset at previous step: stopping
     small trust_radius: resetting bfgs history

     new trust radius        =       0.0000231149 bohr
ibrav =      8
 celldm(1) =     12.85301575
 celldm(2) =      1.01639223
 celldm(3) =      0.68104483
Input lattice vectors:
     1.00854207     0.00000000     0.00000000
     0.00000000     1.02507432     0.00000000
     0.00000000     0.00000000     0.68686236
New lattice vectors in INITIAL alat:
     1.00854207     0.00000000     0.00000000
     0.00000000     1.02507432     0.00000000
     0.00000000     0.00000000     0.68686236
New lattice vectors in NEW alat (for information only):
     1.00000000     0.00000000     0.00000000
     0.00000000     1.01639223     0.00000000
     0.00000000     0.00000000     0.68104483
Discrepancy in bohr =     0.000000    0.000000    0.000000
     new conv_thr            =            1.0E-12 Ry

     new unit-cell volume =   1469.77940 a.u.^3 (   217.79884 Ang^3 )
     density =      2.54667 g/cm^3

[...]

ATOMIC_POSITIONS (crystal)
Ba               0.5000000000        0.5000000000        0.5000215020
Ba               0.0000000000        0.0000000000        0.9999784980
B                0.6150581224        0.2429114396       -0.0000067241
B                0.3849418776        0.7570885604       -0.0000067241
B                0.1150581224        0.2570885604        0.5000067241
B                0.8849418776        0.7429114396        0.5000067241
H                0.4405178971        0.2905294963       -0.0000233624
H                0.5594821029        0.7094705037       -0.0000233624
H                0.9405178971        0.2094705037        0.5000233624
H                0.0594821029        0.7905294963        0.5000233624
H                0.7205738770        0.3889445518        0.0000206105
H                0.2794261230        0.6110554482        0.0000206105
H                0.2205738770        0.1110554482        0.4999793895
H                0.7794261230        0.8889445518        0.4999793895
H                0.6463238532        0.1474993965        0.7806983551
H                0.3536761468        0.8525006035        0.7806983551
H                0.1463238532        0.3525006035        0.7193016449
H                0.8536761468        0.6474993965        0.7193016449
H                0.3536918270        0.8524861510        0.2193012326
H                0.6463081730        0.1475138490        0.2193012326
H                0.8536918270        0.6475138490        0.2806987674
H                0.1463081730        0.3524861510        0.2806987674

     Writing config-only to output data dir ./pwscf.save/ :
     XML data file
     NEW-OLD atomic charge density approx. for the potential

     Self-consistent Calculation

[...]

     Threshold (ethr) on eigenvalues was too large:
     Diagonalizing with lowered threshold

     Davidson diagonalization with overlap
     ethr =  1.06E-12,  avg # of iterations =  4.4

[...]

     total energy              =    -156.47420830 Ry
     estimated scf accuracy    <          1.7E-11 Ry

     iteration #  3     ecut=   100.00 Ry     beta= 0.70
     Davidson diagonalization with overlap
     ethr =  1.00E-13,  avg # of iterations =  2.0

     End of self-consistent calculation

[...]

          k = 0.2479-0.4878-0.7279 ( 24824 PWs)   bands (ev):

[...]

          k =-0.4958-0.4878-0.7279 ( 24872 PWs)   bands (ev):

   -24.0393 -24.0393  -9.7156  -9.7156  -9.3621  -9.3621  -9.3162  -9.3162
    -5.1013  -5.1013  -4.6425  -4.6425  -1.6253  -1.6253  -1.0043  -1.0043
     0.0567   0.0567   0.1754   0.1754   0.2511   0.2511   0.5037   0.5037

     highest occupied level (ev):     0.6370

!    total energy              =    -156.47420830 Ry
     estimated scf accuracy    <          6.2E-13 Ry

     The total energy is the sum of the following terms:
     one-electron contribution =     -24.62983391 Ry
     hartree contribution      =      26.42001235 Ry
     xc contribution           =     -49.10082667 Ry
     ewald contribution        =    -109.16356006 Ry

     convergence has been achieved in   3 iterations

     Forces acting on atoms (cartesian axes, Ry/au):

     atom    1 type  2   force =     0.00000000    0.00000000   -0.00002075
     atom    2 type  2   force =     0.00000000    0.00000000    0.00002075
     atom    3 type  1   force =    -0.00000235   -0.00000034    0.00000919
     atom    4 type  1   force =     0.00000235    0.00000034    0.00000919
     atom    5 type  1   force =    -0.00000235    0.00000034   -0.00000919
     atom    6 type  1   force =     0.00000235   -0.00000034   -0.00000919
     atom    7 type  3   force =     0.00000236    0.00000478    0.00000451
     atom    8 type  3   force =    -0.00000236   -0.00000478    0.00000451
     atom    9 type  3   force =     0.00000236   -0.00000478   -0.00000451
     atom   10 type  3   force =    -0.00000236    0.00000478   -0.00000451
     atom   11 type  3   force =    -0.00000602   -0.00000216   -0.00001576
     atom   12 type  3   force =     0.00000602    0.00000216   -0.00001576
     atom   13 type  3   force =    -0.00000602    0.00000216    0.00001576
     atom   14 type  3   force =     0.00000602   -0.00000216    0.00001576
     atom   15 type  3   force =     0.00000401    0.00001175    0.00000853
     atom   16 type  3   force =    -0.00000401   -0.00001175    0.00000853
     atom   17 type  3   force =     0.00000401   -0.00001175   -0.00000853
     atom   18 type  3   force =    -0.00000401    0.00001175   -0.00000853
     atom   19 type  3   force =    -0.00000229    0.00001172    0.00000220
     atom   20 type  3   force =     0.00000229   -0.00001172    0.00000220
     atom   21 type  3   force =    -0.00000229   -0.00001172   -0.00000220
     atom   22 type  3   force =     0.00000229    0.00001172   -0.00000220

     Total force =     0.000064     Total SCF correction =     0.000001

     Computing stress (Cartesian axis) and pressure

          total   stress  (Ry/bohr**3)                   (kbar)     P=       -4.26
  -0.00002894   0.00000000   0.00000000           -4.26        0.00        0.00
   0.00000000  -0.00002897   0.00000000            0.00       -4.26        0.00
   0.00000000   0.00000000  -0.00002898            0.00        0.00       -4.26

     Volume is kept fixed: isostatic pressure set to zero
     Message from routine bfgs:
     history already reset at previous step: exiting
     Energy error            =      5.2E-09 Ry
     Gradient error          =      2.1E-05 Ry/Bohr
     Cell gradient error     =      3.7E-03 kbar
ibrav =      8
 celldm(1) =     12.85301575
 celldm(2) =      1.01639223
 celldm(3) =      0.68104483
Input lattice vectors:
     1.00854207     0.00000000     0.00000000
     0.00000000     1.02507432     0.00000000
     0.00000000     0.00000000     0.68686236
New lattice vectors in INITIAL alat:
     1.00854207     0.00000000     0.00000000
     0.00000000     1.02507432     0.00000000
     0.00000000     0.00000000     0.68686236
New lattice vectors in NEW alat (for information only):
     1.00000000     0.00000000     0.00000000
     0.00000000     1.01639223     0.00000000
     0.00000000     0.00000000     0.68104483
Discrepancy in bohr =     0.000000    0.000000    0.000000

     bfgs failed after  57 scf cycles and  56 bfgs steps, convergence not achieved
     (criteria: energy <  1.0E-05 Ry, force <  1.0E-05 Ry/Bohr, cell <  5.0E-01 kbar)

     End of BFGS Geometry Optimization

     Final enthalpy           =    -156.4742082985 Ry

     File ./pwscf.bfgs deleted, as requested
Begin final coordinates
     new unit-cell volume =   1469.77940 a.u.^3 (   217.79884 Ang^3 )
     density =      2.54667 g/cm^3

CELL_PARAMETERS (alat= 12.74415427)
   1.008542072   0.000000000   0.000000000
   0.000000000   1.025074323   0.000000000
   0.000000000   0.000000000   0.686862365

ATOMIC_POSITIONS (crystal)
Ba               0.5000000000        0.5000000000        0.5000215020
Ba               0.0000000000        0.0000000000        0.9999784980
B                0.6150581224        0.2429114396       -0.0000067241
B                0.3849418776        0.7570885604       -0.0000067241
B                0.1150581224        0.2570885604        0.5000067241
B                0.8849418776        0.7429114396        0.5000067241
H                0.4405178971        0.2905294963       -0.0000233624
H                0.5594821029        0.7094705037       -0.0000233624
H                0.9405178971        0.2094705037        0.5000233624
H                0.0594821029        0.7905294963        0.5000233624
H                0.7205738770        0.3889445518        0.0000206105
H                0.2794261230        0.6110554482        0.0000206105
H                0.2205738770        0.1110554482        0.4999793895
H                0.7794261230        0.8889445518        0.4999793895
H                0.6463238532        0.1474993965        0.7806983551
H                0.3536761468        0.8525006035        0.7806983551
H                0.1463238532        0.3525006035        0.7193016449
H                0.8536761468        0.6474993965        0.7193016449
H                0.3536918270        0.8524861510        0.2193012326
H                0.6463081730        0.1475138490        0.2193012326
H                0.8536918270        0.6475138490        0.2806987674
H                0.1463081730        0.3524861510        0.2806987674
End final coordinates

     Writing config-only to output data dir ./pwscf.save/ :
     XML data file

     Writing all to output data dir ./pwscf.save/ :
     XML data file, charge density, pseudopotentials, collected wavefunctions

     General routines

     Parallel routines

   This run was terminated on:  16: 4:29  12Jul2024

   JOB DONE.