     Program PHONON v.7.3.1 starts on 12Jul2024 at 12:20:43

     Waiting for input...
     Reading input from standard input

     Reading xml data from directory:

     ./pwscf.save/

     R & G space division:  proc/nbgrp/npool/nimage =      24
     Subspace diagonalization in iterative solution of the eigenvalue problem:
     a serial algorithm will be used

     IMPORTANT: XC functional enforced from input :
     Exchange-correlation= PBESOL
                           (   1   4  10   8   0   0   0)
     Any further DFT definition will be discarded
     Please, verify this is what you really want

     Using Slab Decomposition

     Reading collected, re-writing distributed wavefunctions in ./

     Dynamical matrices for ( 3, 3, 3)  uniform grid of q-points
     (   8 q-points):
       N         xq(1)         xq(2)         xq(3)
       1   0.000000000   0.000000000   0.000000000
       2   0.000000000   0.000000000   0.490959614
       3   0.000000000   0.328470871   0.000000000
       4   0.000000000   0.328470871   0.490959614
       5   0.333333333   0.000000000   0.000000000
       6   0.333333333   0.000000000   0.490959614
       7   0.333333333   0.328470871   0.000000000
       8   0.333333333   0.328470871   0.490959614

     Number and degeneracy of irreps per q-point
       N         xq(1)         xq(2)         xq(3)   N irreps
       1   0.000000000   0.000000000   0.000000000      66
     No degeneracy
       2   0.000000000   0.000000000   0.490959614      66
     No degeneracy
       3   0.000000000   0.328470871   0.000000000      65
        1   1   1   1   1   1   1   1   1   1   1   1   1   1   1   1   1   1
   1   1   1   1   1   1   1   1   1   1   1   1   1   1   1   1   1   1
   1   1   1   2   1   1   1   1   1   1   1   1   1   1   1   1   1   1
   1   1   1   1   1   1   1   1   1   1   1
       4   0.000000000   0.328470871   0.490959614      66
     No degeneracy
       5   0.333333333   0.000000000   0.000000000      66
     No degeneracy
       6   0.333333333   0.000000000   0.490959614      66
     No degeneracy
       7   0.333333333   0.328470871   0.000000000      66
     No degeneracy
       8   0.333333333   0.328470871   0.490959614      66
     No degeneracy

     Saving dvscf to file. Distribute only q points, not irreducible representations.

     Calculation of q =    0.0000000   0.0000000   0.0000000

     bravais-lattice index     =            8
     lattice parameter (alat)  =      12.8938  a.u.
     unit-cell volume          =    1476.9142 (a.u.)^3
     number of atoms/cell      =           22
     number of atomic types    =            3
     kinetic-energy cut-off    =     100.0000  Ry
     charge density cut-off    =     800.0000  Ry
     convergence threshold     =      1.0E-14
     beta                      =       0.7000
     number of iterations used =            4
     Exchange-correlation= PBESOL
                           (   1   4  10   8   0   0   0)

     celldm(1)=   12.89378  celldm(2)=    1.01480  celldm(3)=    0.67894
     celldm(4)=    0.00000  celldm(5)=    0.00000  celldm(6)=    0.00000

     crystal axes: (cart. coord. in units of alat)
               a(1) = (  1.0000  0.0000  0.0000 )
               a(2) = (  0.0000  1.0148  0.0000 )
               a(3) = (  0.0000  0.0000  0.6789 )

     reciprocal axes: (cart. coord. in units 2 pi/alat)
               b(1) = (  1.0000  0.0000  0.0000 )
               b(2) = (  0.0000  0.9854  0.0000 )
               b(3) = (  0.0000  0.0000  1.4729 )

     Atoms inside the unit cell:

     Cartesian axes

     site n.  atom      mass           positions (alat units)
        1  Ba    137.3270   tau(    1) = (    0.50000    0.50740    0.33948  )
        2  Ba    137.3270   tau(    2) = (    0.00000    0.00000    0.67894  )
        3  B      10.8110   tau(    3) = (    0.61595    0.24726    0.00000  )
        4  B      10.8110   tau(    4) = (    0.38405    0.76754    0.00000  )
        5  B      10.8110   tau(    5) = (    0.11595    0.26014    0.33947  )
        6  B      10.8110   tau(    6) = (    0.88405    0.75466    0.33947  )
        7  H       1.0079   tau(    7) = (    0.44165    0.29447   -0.00002  )
        8  H       1.0079   tau(    8) = (    0.55835    0.72033   -0.00002  )
        9  H       1.0079   tau(    9) = (    0.94165    0.21293    0.33949  )
       10  H       1.0079   tau(   10) = (    0.05835    0.80187    0.33949  )
       11  H       1.0079   tau(   11) = (    0.72023    0.39585    0.00001  )
       12  H       1.0079   tau(   12) = (    0.27977    0.61896    0.00001  )
       13  H       1.0079   tau(   13) = (    0.22023    0.11156    0.33946  )
       14  H       1.0079   tau(   14) = (    0.77977    0.90325    0.33946  )
       15  H       1.0079   tau(   15) = (    0.64768    0.15080    0.53004  )
       16  H       1.0079   tau(   16) = (    0.35232    0.86401    0.53004  )
       17  H       1.0079   tau(   17) = (    0.14768    0.35660    0.48838  )
       18  H       1.0079   tau(   18) = (    0.85232    0.65820    0.48838  )
       19  H       1.0079   tau(   19) = (    0.35233    0.86400    0.14891  )
       20  H       1.0079   tau(   20) = (    0.64767    0.15080    0.14891  )
       21  H       1.0079   tau(   21) = (    0.85233    0.65820    0.19056  )
       22  H       1.0079   tau(   22) = (    0.14767    0.35660    0.19056  )

     Computing dynamical matrix for
                    q = (   0.0000000   0.0000000   0.0000000 )

      5 Sym.Ops. (with q -> -q+G )

     G cutoff = 3368.9187  (  23507 G-vectors)     FFT grid: (120,120, 80)
     G cutoff = 1684.4593  (   8310 G-vectors)  smooth grid: ( 90, 90, 60)
     number of k points=    27

     PseudoPot. # 1 for B  read from file:
     /home/mehlhorn/pseudos/b_pbesol_v1.4.uspp.F.UPF
     MD5 check sum: 369b69bef2c3aeed4453bd8b804fd6a8
     Pseudo is Ultrasoft + core correction, Zval =  3.0
     Generated by new atomic code, or converted to UPF format
     Using radial grid of  781 points,  4 beta functions with:
                l(1) =   0
                l(2) =   0
                l(3) =   1
                l(4) =   1
     Q(r) pseudized with  8 coefficients,  rinner =    1.100   1.100   1.100

     PseudoPot. # 2 for Ba read from file:
     /home/mehlhorn/pseudos/Ba.nc.z_10.oncvpsp4.dojo.v4-sp.upf
     MD5 check sum: c10ed334bb677c0554edec7181ce9143
     Pseudo is Norm-conserving + core correction, Zval = 10.0
     Generated using ONCVPSP code by D. R. Hamann
     Using radial grid of 1938 points,  8 beta functions with:
                l(1) =   0
                l(2) =   0
                l(3) =   1
                l(4) =   1
                l(5) =   2
                l(6) =   2
                l(7) =   3
                l(8) =   3

     PseudoPot. # 3 for H  read from file:
     /home/mehlhorn/pseudos/H_ONCV_PBEsol-1.0.upf
     MD5 check sum: 398ef8f67c0a7342c05c87c5e19ea467
     Pseudo is Norm-conserving, Zval =  1.0
     Generated using ONCVPSP code by D. R. Hamann
     Using radial grid of 1180 points,  2 beta functions with:
                l(1) =   0
                l(2) =   0

     Mode symmetry, D_2  (222)  point group:

     Electric field:
     Dielectric constant
     Born effective charges in two ways

     Atomic displacements:
     There are   66 irreducible representations

     Representation     1      1 modes -  To be done

[...]

     Alpha used in Ewald sum =   2.8000

     Electric Fields Calculation

      thresh= 1.000E-02 alpha_mix =  0.700 |ddv_scf|^2 =  6.072E-09

[...]

     End of electric fields calculation

          Dielectric constant in cartesian axis

          (       3.032997036       0.000000000       0.000000000 )
          (       0.000000000       3.086893385       0.000000000 )
          (       0.000000000       0.000000000       3.242498249 )

          Effective charges (d Force / dE) in cartesian axis without acoustic sum rule applied (asr)

           atom    1  Ba    Mean Z*:        2.63768
      Ex  (        2.46374       -0.05689        0.00000 )
      Ey  (        0.27963        2.48500       -0.00000 )
      Ez  (       -0.00000        0.00000        2.96429 )
           atom    2  Ba    Mean Z*:        2.63768
      Ex  (        2.46374        0.05689        0.00000 )
      Ey  (       -0.27963        2.48500       -0.00000 )
      Ez  (        0.00000        0.00000        2.96429 )
           atom    3  B     Mean Z*:       -0.12152
      Ex  (       -0.14140        0.02765       -0.00001 )
      Ey  (        0.17327       -0.02613        0.00002 )
      Ez  (        0.00003        0.00000       -0.19703 )
           atom    4  B     Mean Z*:       -0.12152
      Ex  (       -0.14140        0.02765        0.00001 )
      Ey  (        0.17327       -0.02613       -0.00002 )
      Ez  (       -0.00003       -0.00000       -0.19703 )
           atom    5  B     Mean Z*:       -0.12152
      Ex  (       -0.14140       -0.02765        0.00001 )
      Ey  (       -0.17327       -0.02613        0.00002 )
      Ez  (       -0.00003        0.00000       -0.19703 )
           atom    6  B     Mean Z*:       -0.12152
      Ex  (       -0.14140       -0.02765       -0.00001 )
      Ey  (       -0.17327       -0.02613       -0.00002 )
      Ez  (        0.00003       -0.00000       -0.19703 )
           atom    7  H     Mean Z*:       -0.31025
      Ex  (       -0.43683        0.13943       -0.00003 )
      Ey  (        0.14465       -0.24387        0.00004 )
      Ez  (       -0.00003        0.00004       -0.25004 )
           atom    8  H     Mean Z*:       -0.31025
      Ex  (       -0.43683        0.13943        0.00003 )
      Ey  (        0.14465       -0.24387       -0.00004 )
      Ez  (        0.00003       -0.00004       -0.25004 )
           atom    9  H     Mean Z*:       -0.31025
      Ex  (       -0.43683       -0.13943        0.00003 )
      Ey  (       -0.14465       -0.24387        0.00004 )
      Ez  (        0.00003        0.00004       -0.25004 )
           atom   10  H     Mean Z*:       -0.31025
      Ex  (       -0.43683       -0.13943       -0.00003 )
      Ey  (       -0.14465       -0.24387       -0.00004 )
      Ez  (       -0.00003       -0.00004       -0.25004 )
           atom   11  H     Mean Z*:       -0.31016
      Ex  (       -0.24939       -0.03136       -0.00000 )
      Ey  (       -0.10985       -0.43517       -0.00001 )
      Ez  (       -0.00001       -0.00001       -0.24590 )
           atom   12  H     Mean Z*:       -0.31016
      Ex  (       -0.24939       -0.03136        0.00000 )
      Ey  (       -0.10985       -0.43517        0.00001 )
      Ez  (        0.00001        0.00001       -0.24590 )
           atom   13  H     Mean Z*:       -0.31016
      Ex  (       -0.24939        0.03136        0.00000 )
      Ey  (        0.10985       -0.43517       -0.00001 )
      Ez  (        0.00001       -0.00001       -0.24590 )
           atom   14  H     Mean Z*:       -0.31016
      Ex  (       -0.24939        0.03136       -0.00000 )
      Ey  (        0.10985       -0.43517        0.00001 )
      Ez  (       -0.00001        0.00001       -0.24590 )
           atom   15  H     Mean Z*:       -0.28821
[...]

[...]

     atomic species   valence    mass     pseudopotential
     B                 3.00    10.81100     B ( 1.00)
     Ba               10.00   137.32700     Ba( 1.00)
     H                 1.00     1.00794     H ( 1.00)

      4 Sym. Ops. (no inversion) found

[...]

     site n.     atom                  positions (alat units)
         1        Ba     tau(   1) = (   0.5000000   0.5074017   0.3394765  )
         2        Ba     tau(   2) = (   0.0000000   0.0000000   0.6789372  )
         3        B      tau(   3) = (   0.6159485   0.2472610   0.0000003  )
         4        B      tau(   4) = (   0.3840515   0.7675423   0.0000003  )
         5        B      tau(   5) = (   0.1159485   0.2601406   0.3394709  )
         6        B      tau(   6) = (   0.8840515   0.7546627   0.3394709  )
         7        H      tau(   7) = (   0.4416547   0.2944720  -0.0000162  )
         8        H      tau(   8) = (   0.5583453   0.7203313  -0.0000162  )
         9        H      tau(   9) = (   0.9416547   0.2129296   0.3394874  )
        10        H      tau(  10) = (   0.0583453   0.8018737   0.3394874  )
        11        H      tau(  11) = (   0.7202307   0.3958459   0.0000068  )
        12        H      tau(  12) = (   0.2797693   0.6189574   0.0000068  )
        13        H      tau(  13) = (   0.2202307   0.1115558   0.3394645  )
        14        H      tau(  14) = (   0.7797693   0.9032476   0.3394645  )
        15        H      tau(  15) = (   0.6476834   0.1507978   0.5300368  )
        16        H      tau(  16) = (   0.3523166   0.8640056   0.5300368  )
        17        H      tau(  17) = (   0.1476834   0.3566039   0.4883769  )
        18        H      tau(  18) = (   0.8523166   0.6581994   0.4883769  )
        19        H      tau(  19) = (   0.3523322   0.8640023   0.1489115  )
        20        H      tau(  20) = (   0.6476678   0.1508010   0.1489115  )
        21        H      tau(  21) = (   0.8523322   0.6582027   0.1905597  )
        22        H      tau(  22) = (   0.1476678   0.3566006   0.1905597  )

     number of k points=   250

     Number of k-points >= 100: set verbosity='high' to print them.

     The potential is recalculated from file :
     ./_ph0/pwscf.q_8/pwscf.save/charge-density

     Starting wfcs are   42 atomic wfcs

     Band Structure Calculation
     Davidson diagonalization with overlap

     ethr =  2.08E-11,  avg # of iterations = 21.9

     End of band structure calculation

     Number of k-points >= 100: set verbosity='high' to print the bands.

     highest occupied level (ev):     0.5966

     Writing config to output data dir ./_ph0/pwscf.q_8/pwscf.save/ :
     XML data file

     bravais-lattice index     =            8
     lattice parameter (alat)  =      12.8938  a.u.
     unit-cell volume          =    1476.9142 (a.u.)^3
     number of atoms/cell      =           22
     number of atomic types    =            3
     kinetic-energy cut-off    =     100.0000  Ry
     charge density cut-off    =     800.0000  Ry
     convergence threshold     =      1.0E-14
     beta                      =       0.7000
     number of iterations used =            4
     Exchange-correlation= PBESOL
                           (   1   4  10   8   0   0   0)

     celldm(1)=   12.89378  celldm(2)=    1.01480  celldm(3)=    0.67894
     celldm(4)=    0.00000  celldm(5)=    0.00000  celldm(6)=    0.00000

     crystal axes: (cart. coord. in units of alat)
               a(1) = (  1.0000  0.0000  0.0000 )
               a(2) = (  0.0000  1.0148  0.0000 )
               a(3) = (  0.0000  0.0000  0.6789 )

     reciprocal axes: (cart. coord. in units 2 pi/alat)
               b(1) = (  1.0000  0.0000  0.0000 )
               b(2) = (  0.0000  0.9854  0.0000 )
               b(3) = (  0.0000  0.0000  1.4729 )

     Atoms inside the unit cell:

     Cartesian axes

     site n.  atom      mass           positions (alat units)
        1  Ba    137.3270   tau(    1) = (    0.50000    0.50740    0.33948  )
        2  Ba    137.3270   tau(    2) = (    0.00000    0.00000    0.67894  )
        3  B      10.8110   tau(    3) = (    0.61595    0.24726    0.00000  )
        4  B      10.8110   tau(    4) = (    0.38405    0.76754    0.00000  )
        5  B      10.8110   tau(    5) = (    0.11595    0.26014    0.33947  )
        6  B      10.8110   tau(    6) = (    0.88405    0.75466    0.33947  )
        7  H       1.0079   tau(    7) = (    0.44165    0.29447   -0.00002  )
        8  H       1.0079   tau(    8) = (    0.55835    0.72033   -0.00002  )
        9  H       1.0079   tau(    9) = (    0.94165    0.21293    0.33949  )
       10  H       1.0079   tau(   10) = (    0.05835    0.80187    0.33949  )
       11  H       1.0079   tau(   11) = (    0.72023    0.39585    0.00001  )
       12  H       1.0079   tau(   12) = (    0.27977    0.61896    0.00001  )
       13  H       1.0079   tau(   13) = (    0.22023    0.11156    0.33946  )
       14  H       1.0079   tau(   14) = (    0.77977    0.90325    0.33946  )
       15  H       1.0079   tau(   15) = (    0.64768    0.15080    0.53004  )
       16  H       1.0079   tau(   16) = (    0.35232    0.86401    0.53004  )
       17  H       1.0079   tau(   17) = (    0.14768    0.35660    0.48838  )
       18  H       1.0079   tau(   18) = (    0.85232    0.65820    0.48838  )
       19  H       1.0079   tau(   19) = (    0.35233    0.86400    0.14891  )
       20  H       1.0079   tau(   20) = (    0.64767    0.15080    0.14891  )
       21  H       1.0079   tau(   21) = (    0.85233    0.65820    0.19056  )
       22  H       1.0079   tau(   22) = (    0.14767    0.35660    0.19056  )

     Computing dynamical matrix for
                    q = (   0.3333333   0.3284709   0.4909596 )

     No symmetry!

     G cutoff = 3368.9187  (  23507 G-vectors)     FFT grid: (120,120, 80)
     G cutoff = 1684.4593  (   8310 G-vectors)  smooth grid: ( 90, 90, 60)
     number of k points=   250

     PseudoPot. # 1 for B  read from file:
     /home/mehlhorn/pseudos/b_pbesol_v1.4.uspp.F.UPF
     MD5 check sum: 369b69bef2c3aeed4453bd8b804fd6a8
     Pseudo is Ultrasoft + core correction, Zval =  3.0
     Generated by new atomic code, or converted to UPF format
     Using radial grid of  781 points,  4 beta functions with:
                l(1) =   0
                l(2) =   0
                l(3) =   1
                l(4) =   1
     Q(r) pseudized with  8 coefficients,  rinner =    1.100   1.100   1.100

     PseudoPot. # 2 for Ba read from file:
     /home/mehlhorn/pseudos/Ba.nc.z_10.oncvpsp4.dojo.v4-sp.upf
     MD5 check sum: c10ed334bb677c0554edec7181ce9143
     Pseudo is Norm-conserving + core correction, Zval = 10.0
     Generated using ONCVPSP code by D. R. Hamann
     Using radial grid of 1938 points,  8 beta functions with:
                l(1) =   0
                l(2) =   0
                l(3) =   1
                l(4) =   1
                l(5) =   2
                l(6) =   2
                l(7) =   3
                l(8) =   3

     PseudoPot. # 3 for H  read from file:
     /home/mehlhorn/pseudos/H_ONCV_PBEsol-1.0.upf
     MD5 check sum: 398ef8f67c0a7342c05c87c5e19ea467
     Pseudo is Norm-conserving, Zval =  1.0
     Generated using ONCVPSP code by D. R. Hamann
     Using radial grid of 1180 points,  2 beta functions with:
                l(1) =   0
                l(2) =   0

[...]

     Atomic displacements:
     There are   66 irreducible representations

[...]

     Representation    66      1 modes -  To be done

     Alpha used in Ewald sum =   2.8000

[...]

     Representation #  66 mode #  66

     Self-consistent Calculation

[...]

      thresh= 1.077E-08 alpha_mix =  0.700 |ddv_scf|^2 =  9.543E-16

     End of self-consistent calculation

     Convergence has been achieved

     Number of q in the star =    4
     List of q in the star:
          1   0.333333333   0.328470871   0.490959614
          2   0.333333333  -0.328470871  -0.490959614
          3  -0.333333333   0.328470871  -0.490959614
          4  -0.333333333  -0.328470871   0.490959614
     In addition there is the -q list:
          1  -0.333333333  -0.328470871  -0.490959614
          2  -0.333333333   0.328470871   0.490959614
          3   0.333333333  -0.328470871   0.490959614
          4   0.333333333   0.328470871  -0.490959614

     Diagonalizing the dynamical matrix

     q = (    0.333333333   0.328470871   0.490959614 )

     freq (    1) =       1.257165 [THz] =      41.934526 [cm-1]
     freq (    2) =       1.309462 [THz] =      43.678965 [cm-1]
     freq (    3) =       1.592621 [THz] =      53.124130 [cm-1]
     freq (    4) =       1.841940 [THz] =      61.440503 [cm-1]
     freq (    5) =       2.868322 [THz] =      95.676917 [cm-1]
     freq (    6) =       2.959674 [THz] =      98.724085 [cm-1]
     freq (    7) =       4.694789 [THz] =     156.601311 [cm-1]
     freq (    8) =       4.782378 [THz] =     159.522951 [cm-1]
     freq (    9) =       5.305453 [THz] =     176.970859 [cm-1]
     freq (   10) =       5.665399 [THz] =     188.977368 [cm-1]
     freq (   11) =       6.016754 [THz] =     200.697306 [cm-1]
     freq (   12) =       6.113699 [THz] =     203.931052 [cm-1]
     freq (   13) =       6.380588 [THz] =     212.833491 [cm-1]
     freq (   14) =       6.676288 [THz] =     222.696989 [cm-1]
     freq (   15) =       7.111535 [THz] =     237.215260 [cm-1]
     freq (   16) =       7.216491 [THz] =     240.716245 [cm-1]
     freq (   17) =       8.140198 [THz] =     271.527791 [cm-1]
     freq (   18) =       8.274685 [THz] =     276.013767 [cm-1]
     freq (   19) =       8.426138 [THz] =     281.065715 [cm-1]
     freq (   20) =       8.443737 [THz] =     281.652743 [cm-1]
     freq (   21) =       8.951512 [THz] =     298.590296 [cm-1]
     freq (   22) =       9.046363 [THz] =     301.754182 [cm-1]
     freq (   23) =       9.165746 [THz] =     305.736366 [cm-1]
     freq (   24) =       9.463223 [THz] =     315.659150 [cm-1]
     freq (   25) =       9.897405 [THz] =     330.141884 [cm-1]
     freq (   26) =      10.069239 [THz] =     335.873676 [cm-1]
     freq (   27) =      12.663653 [THz] =     422.413995 [cm-1]
     freq (   28) =      12.718706 [THz] =     424.250382 [cm-1]
     freq (   29) =      12.794014 [THz] =     426.762362 [cm-1]
     freq (   30) =      12.882784 [THz] =     429.723406 [cm-1]
     freq (   31) =      30.739213 [THz] =    1025.349773 [cm-1]
     freq (   32) =      30.747131 [THz] =    1025.613893 [cm-1]
     freq (   33) =      30.909066 [THz] =    1031.015480 [cm-1]
     freq (   34) =      30.931052 [THz] =    1031.748827 [cm-1]
     freq (   35) =      31.806080 [THz] =    1060.936616 [cm-1]
     freq (   36) =      31.827281 [THz] =    1061.643821 [cm-1]
     freq (   37) =      31.868542 [THz] =    1063.020121 [cm-1]
     freq (   38) =      31.919351 [THz] =    1064.714946 [cm-1]
     freq (   39) =      32.244528 [THz] =    1075.561676 [cm-1]
     freq (   40) =      32.270684 [THz] =    1076.434165 [cm-1]
     freq (   41) =      32.345097 [THz] =    1078.916305 [cm-1]
     freq (   42) =      32.407321 [THz] =    1080.991885 [cm-1]
     freq (   43) =      35.841345 [THz] =    1195.538595 [cm-1]
     freq (   44) =      35.875214 [THz] =    1196.668328 [cm-1]
     freq (   45) =      35.984148 [THz] =    1200.301980 [cm-1]
     freq (   46) =      36.016549 [THz] =    1201.382774 [cm-1]
     freq (   47) =      36.106973 [THz] =    1204.398967 [cm-1]
     freq (   48) =      36.108832 [THz] =    1204.460976 [cm-1]
     freq (   49) =      36.155967 [THz] =    1206.033239 [cm-1]
     freq (   50) =      36.172447 [THz] =    1206.582970 [cm-1]
     freq (   51) =      68.229391 [THz] =    2275.887495 [cm-1]
     freq (   52) =      68.246312 [THz] =    2276.451927 [cm-1]
     freq (   53) =      68.271434 [THz] =    2277.289925 [cm-1]
     freq (   54) =      68.309169 [THz] =    2278.548617 [cm-1]
     freq (   55) =      70.078002 [THz] =    2337.550533 [cm-1]
     freq (   56) =      70.088259 [THz] =    2337.892676 [cm-1]
     freq (   57) =      70.230423 [THz] =    2342.634762 [cm-1]
     freq (   58) =      70.232835 [THz] =    2342.715222 [cm-1]
     freq (   59) =      70.751571 [THz] =    2360.018361 [cm-1]
     freq (   60) =      70.760556 [THz] =    2360.318070 [cm-1]
     freq (   61) =      70.849996 [THz] =    2363.301488 [cm-1]
     freq (   62) =      70.880637 [THz] =    2364.323560 [cm-1]
     freq (   63) =      71.378926 [THz] =    2380.944703 [cm-1]
     freq (   64) =      71.394490 [THz] =    2381.463842 [cm-1]
     freq (   65) =      71.466743 [THz] =    2383.873959 [cm-1]
     freq (   66) =      71.509029 [THz] =    2385.284472 [cm-1]

     Mode symmetry, C_1 (1)     point group:

     freq (   1-   1) =         41.9  [cm-1]   --> A
     freq (   2-   2) =         43.7  [cm-1]   --> A
     freq (   3-   3) =         53.1  [cm-1]   --> A
     freq (   4-   4) =         61.4  [cm-1]   --> A
     freq (   5-   5) =         95.7  [cm-1]   --> A
     freq (   6-   6) =         98.7  [cm-1]   --> A
     freq (   7-   7) =        156.6  [cm-1]   --> A
     freq (   8-   8) =        159.5  [cm-1]   --> A
     freq (   9-   9) =        177.0  [cm-1]   --> A
     freq (  10-  10) =        189.0  [cm-1]   --> A
     freq (  11-  11) =        200.7  [cm-1]   --> A
     freq (  12-  12) =        203.9  [cm-1]   --> A
     freq (  13-  13) =        212.8  [cm-1]   --> A
     freq (  14-  14) =        222.7  [cm-1]   --> A
     freq (  15-  15) =        237.2  [cm-1]   --> A
     freq (  16-  16) =        240.7  [cm-1]   --> A
     freq (  17-  17) =        271.5  [cm-1]   --> A
     freq (  18-  18) =        276.0  [cm-1]   --> A
     freq (  19-  19) =        281.1  [cm-1]   --> A
     freq (  20-  20) =        281.7  [cm-1]   --> A
     freq (  21-  21) =        298.6  [cm-1]   --> A
     freq (  22-  22) =        301.8  [cm-1]   --> A
     freq (  23-  23) =        305.7  [cm-1]   --> A
     freq (  24-  24) =        315.7  [cm-1]   --> A
     freq (  25-  25) =        330.1  [cm-1]   --> A
     freq (  26-  26) =        335.9  [cm-1]   --> A
     freq (  27-  27) =        422.4  [cm-1]   --> A
     freq (  28-  28) =        424.3  [cm-1]   --> A
     freq (  29-  29) =        426.8  [cm-1]   --> A
     freq (  30-  30) =        429.7  [cm-1]   --> A
     freq (  31-  31) =       1025.3  [cm-1]   --> A
     freq (  32-  32) =       1025.6  [cm-1]   --> A
     freq (  33-  33) =       1031.0  [cm-1]   --> A
     freq (  34-  34) =       1031.7  [cm-1]   --> A
     freq (  35-  35) =       1060.9  [cm-1]   --> A
     freq (  36-  36) =       1061.6  [cm-1]   --> A
     freq (  37-  37) =       1063.0  [cm-1]   --> A
     freq (  38-  38) =       1064.7  [cm-1]   --> A
     freq (  39-  39) =       1075.6  [cm-1]   --> A
     freq (  40-  40) =       1076.4  [cm-1]   --> A
     freq (  41-  41) =       1078.9  [cm-1]   --> A
     freq (  42-  42) =       1081.0  [cm-1]   --> A
     freq (  43-  43) =       1195.5  [cm-1]   --> A
     freq (  44-  44) =       1196.7  [cm-1]   --> A
     freq (  45-  45) =       1200.3  [cm-1]   --> A
     freq (  46-  46) =       1201.4  [cm-1]   --> A
     freq (  47-  47) =       1204.4  [cm-1]   --> A
     freq (  48-  48) =       1204.5  [cm-1]   --> A
     freq (  49-  49) =       1206.0  [cm-1]   --> A
     freq (  50-  50) =       1206.6  [cm-1]   --> A
     freq (  51-  51) =       2275.9  [cm-1]   --> A
     freq (  52-  52) =       2276.5  [cm-1]   --> A
     freq (  53-  53) =       2277.3  [cm-1]   --> A
     freq (  54-  54) =       2278.5  [cm-1]   --> A
     freq (  55-  55) =       2337.6  [cm-1]   --> A
     freq (  56-  56) =       2337.9  [cm-1]   --> A
     freq (  57-  57) =       2342.6  [cm-1]   --> A
     freq (  58-  58) =       2342.7  [cm-1]   --> A
     freq (  59-  59) =       2360.0  [cm-1]   --> A
     freq (  60-  60) =       2360.3  [cm-1]   --> A
     freq (  61-  61) =       2363.3  [cm-1]   --> A
     freq (  62-  62) =       2364.3  [cm-1]   --> A
     freq (  63-  63) =       2380.9  [cm-1]   --> A
     freq (  64-  64) =       2381.5  [cm-1]   --> A
     freq (  65-  65) =       2383.9  [cm-1]   --> A
     freq (  66-  66) =       2385.3  [cm-1]   --> A

     General routines

     Parallel routines

     INITIALIZATION:

     DYNAMICAL MATRIX:

                                        0.00s GPU  (  339320 calls)

                                        0.00s GPU  (   49434 calls)

      General routines

      Additional routines
                                        0.00s GPU  ( 5560618 calls)
                                        0.00s GPU  ( 5560618 calls)

   This run was terminated on:  12:57:32  24Jul2024

   JOB DONE.