     Program PWSCF v.7.3.1 starts on  9Jul2024 at  8:32:36

     Waiting for input...
     Reading input from standard input

     Current dimensions of program PWSCF are:
     Max number of different atomic species (ntypx) = 10
     Max number of k-points (npk) =  40000
     Max angular momentum in pseudopotentials (lmaxx) =  4

     R & G space division:  proc/nbgrp/npool/nimage =      24
     Subspace diagonalization in iterative solution of the eigenvalue problem:
     a serial algorithm will be used

     Using Slab Decomposition

     Title:
     InitGeomOpt

     bravais-lattice index     =            8
     lattice parameter (alat)  =      13.1993  a.u.
     unit-cell volume          =    1652.2482 (a.u.)^3
     number of atoms/cell      =           22
     number of atomic types    =            3
     number of electrons       =        48.00
     number of Kohn-Sham states=           24
     kinetic-energy cutoff     =     100.0000  Ry
     charge density cutoff     =     800.0000  Ry
     scf convergence threshold =      1.0E-10
     mixing beta               =       0.7000
     number of iterations used =            8  plain     mixing
     energy convergence thresh.=      1.0E-05
     force convergence thresh. =      1.0E-05
     press convergence thresh. =      1.0E-01
     Exchange-correlation= PBESOL
                           (   1   4  10   8   0   0   0)
     nstep                     =           50

     celldm(1)=  13.199283  celldm(2)=   1.034883  celldm(3)=   0.694277
     celldm(4)=   0.000000  celldm(5)=   0.000000  celldm(6)=   0.000000

     crystal axes: (cart. coord. in units of alat)
               a(1) = (   1.000000   0.000000   0.000000 )
               a(2) = (   0.000000   1.034883   0.000000 )
               a(3) = (   0.000000   0.000000   0.694277 )

     reciprocal axes: (cart. coord. in units 2 pi/alat)
               b(1) = (  1.000000  0.000000  0.000000 )
               b(2) = (  0.000000  0.966293  0.000000 )
               b(3) = (  0.000000  0.000000  1.440347 )

     PseudoPot. # 1 for B  read from file:
     /home/mehlhorn/pseudos/b_pbesol_v1.4.uspp.F.UPF
     MD5 check sum: 369b69bef2c3aeed4453bd8b804fd6a8
     Pseudo is Ultrasoft + core correction, Zval =  3.0
     Generated by new atomic code, or converted to UPF format
     Using radial grid of  781 points,  4 beta functions with:
                l(1) =   0
                l(2) =   0
                l(3) =   1
                l(4) =   1
     Q(r) pseudized with  8 coefficients,  rinner =    1.100   1.100   1.100

     PseudoPot. # 2 for Ba read from file:
     /home/mehlhorn/pseudos/Ba.nc.z_10.oncvpsp4.dojo.v4-sp.upf
     MD5 check sum: c10ed334bb677c0554edec7181ce9143
     Pseudo is Norm-conserving + core correction, Zval = 10.0
     Generated using ONCVPSP code by D. R. Hamann
     Using radial grid of 1938 points,  8 beta functions with:
                l(1) =   0
                l(2) =   0
                l(3) =   1
                l(4) =   1
                l(5) =   2
                l(6) =   2
                l(7) =   3
                l(8) =   3

     PseudoPot. # 3 for H  read from file:
     /home/mehlhorn/pseudos/H_ONCV_PBEsol-1.0.upf
     MD5 check sum: 398ef8f67c0a7342c05c87c5e19ea467
     Pseudo is Norm-conserving, Zval =  1.0
     Generated using ONCVPSP code by D. R. Hamann
     Using radial grid of 1180 points,  2 beta functions with:
                l(1) =   0
                l(2) =   0

     atomic species   valence    mass     pseudopotential
     B                 3.00    10.81100     B ( 1.00)
     Ba               10.00   137.32700     Ba( 1.00)
     H                 1.00     1.00794     H ( 1.00)

      4 Sym. Ops. (no inversion) found ( 2 have fractional translation)

   Cartesian axes

     site n.     atom                  positions (alat units)
         1        Ba     tau(   1) = (   0.5000000   0.5174415   0.3471942  )
         2        Ba     tau(   2) = (   0.0000000   0.0000000   0.6942217  )
         3        B      tau(   3) = (   0.6308000   0.2628603   0.0000139  )
         4        B      tau(   4) = (   0.3692000   0.7720228   0.0000139  )
         5        B      tau(   5) = (   0.1308000   0.2545812   0.3471247  )
         6        B      tau(   6) = (   0.8692000   0.7803018   0.3471247  )
         7        H      tau(   7) = (   0.4582000   0.2939068   0.0001805  )
         8        H      tau(   8) = (   0.5418000   0.7409763   0.0001805  )
         9        H      tau(   9) = (   0.9582000   0.2235347   0.3469581  )
        10        H      tau(  10) = (   0.0418000   0.8113483   0.3469581  )
        11        H      tau(  11) = (   0.7204000   0.4141602   0.0000000  )
        12        H      tau(  12) = (   0.2796000   0.6207229   0.0000000  )
        13        H      tau(  13) = (   0.2204000   0.1032813   0.3471386  )
        14        H      tau(  14) = (   0.7796000   0.9316018   0.3471386  )
        15        H      tau(  15) = (   0.6689000   0.1713766   0.5494094  )
        16        H      tau(  16) = (   0.3311000   0.8635064   0.5494094  )
        17        H      tau(  17) = (   0.1689000   0.3460649   0.4920065  )
        18        H      tau(  18) = (   0.8311000   0.6888182   0.4920065  )
        19        H      tau(  19) = (   0.3311000   0.8635064   0.1448679  )
        20        H      tau(  20) = (   0.6689000   0.1713766   0.1448679  )
        21        H      tau(  21) = (   0.8311000   0.6888182   0.2022707  )
        22        H      tau(  22) = (   0.1689000   0.3460649   0.2022707  )

     number of k points=    27
                       cart. coord. in units 2pi/alat
        k(    1) = (   0.0000000   0.0000000   0.0000000), wk =   0.0312500
        k(    2) = (   0.0000000   0.0000000   0.3600867), wk =   0.0625000
        k(    3) = (   0.0000000   0.0000000  -0.7201734), wk =   0.0312500
        k(    4) = (   0.0000000   0.2415732   0.0000000), wk =   0.0625000
        k(    5) = (   0.0000000   0.2415732   0.3600867), wk =   0.1250000
        k(    6) = (   0.0000000   0.2415732  -0.7201734), wk =   0.0625000
        k(    7) = (   0.0000000  -0.4831464   0.0000000), wk =   0.0312500
        k(    8) = (   0.0000000  -0.4831464   0.3600867), wk =   0.0625000
        k(    9) = (   0.0000000  -0.4831464  -0.7201734), wk =   0.0312500
        k(   10) = (   0.2500000   0.0000000   0.0000000), wk =   0.0625000
        k(   11) = (   0.2500000   0.0000000   0.3600867), wk =   0.1250000
        k(   12) = (   0.2500000   0.0000000  -0.7201734), wk =   0.0625000
        k(   13) = (   0.2500000   0.2415732   0.0000000), wk =   0.1250000
        k(   14) = (   0.2500000   0.2415732   0.3600867), wk =   0.2500000
        k(   15) = (   0.2500000   0.2415732  -0.7201734), wk =   0.1250000
        k(   16) = (   0.2500000  -0.4831464   0.0000000), wk =   0.0625000
        k(   17) = (   0.2500000  -0.4831464   0.3600867), wk =   0.1250000
        k(   18) = (   0.2500000  -0.4831464  -0.7201734), wk =   0.0625000
        k(   19) = (  -0.5000000   0.0000000   0.0000000), wk =   0.0312500
        k(   20) = (  -0.5000000   0.0000000   0.3600867), wk =   0.0625000
        k(   21) = (  -0.5000000   0.0000000  -0.7201734), wk =   0.0312500
        k(   22) = (  -0.5000000   0.2415732   0.0000000), wk =   0.0625000
        k(   23) = (  -0.5000000   0.2415732   0.3600867), wk =   0.1250000
        k(   24) = (  -0.5000000   0.2415732  -0.7201734), wk =   0.0625000
        k(   25) = (  -0.5000000  -0.4831464   0.0000000), wk =   0.0312500
        k(   26) = (  -0.5000000  -0.4831464   0.3600867), wk =   0.0625000
        k(   27) = (  -0.5000000  -0.4831464  -0.7201734), wk =   0.0312500

     Initial potential from superposition of free atoms

     starting charge      47.9682, renormalised to      48.0000
     Starting wfcs are   42 randomized atomic wfcs

     Self-consistent Calculation

     iteration #  1     ecut=   100.00 Ry     beta= 0.70
     Davidson diagonalization with overlap
     ethr =  1.00E-02,  avg # of iterations =  2.0

     total energy              =    -155.85587054 Ry
     estimated scf accuracy    <       2.28697837 Ry

[...]

     End of self-consistent calculation

          k = 0.0000 0.0000 0.0000 ( 27937 PWs)   bands (ev):

   -25.2015 -25.1971 -10.5615 -10.5256 -10.3876 -10.3773 -10.3299 -10.2892
    -6.6441  -5.8691  -5.5170  -5.3884  -2.2787  -1.4468  -1.4062  -1.0900
    -1.0263  -0.9861  -0.8945  -0.8711  -0.5664  -0.2163  -0.2156  -0.1528

[...]

          k =-0.5000 0.0000 0.0000 ( 27930 PWs)   bands (ev):

[...]

     highest occupied level (ev):    -0.1528

!    total energy              =    -156.45577742 Ry
     estimated scf accuracy    <          4.7E-11 Ry

     The total energy is the sum of the following terms:
     one-electron contribution =     -35.60697328 Ry
     hartree contribution      =      30.32227575 Ry
     xc contribution           =     -48.96391662 Ry
     ewald contribution        =    -102.20716326 Ry

     convergence has been achieved in  11 iterations

     Forces acting on atoms (cartesian axes, Ry/au):

     atom    1 type  2   force =     0.00000000    0.00000000   -0.00001836
     atom    2 type  2   force =     0.00000000    0.00000000    0.00001836
     atom    3 type  1   force =    -0.00183980    0.00233575    0.00000545
     atom    4 type  1   force =     0.00183980   -0.00233575    0.00000545
     atom    5 type  1   force =    -0.00183980   -0.00233575   -0.00000545
     atom    6 type  1   force =     0.00183980    0.00233575   -0.00000545
     atom    7 type  3   force =    -0.00676870    0.00299387   -0.00012115
     atom    8 type  3   force =     0.00676870   -0.00299387   -0.00012115
     atom    9 type  3   force =    -0.00676870   -0.00299387    0.00012115
     atom   10 type  3   force =     0.00676870    0.00299387    0.00012115
     atom   11 type  3   force =     0.00375275    0.00670929    0.00001303
     atom   12 type  3   force =    -0.00375275   -0.00670929    0.00001303
     atom   13 type  3   force =     0.00375275   -0.00670929   -0.00001303
     atom   14 type  3   force =    -0.00375275    0.00670929   -0.00001303
     atom   15 type  3   force =     0.00124150   -0.00231728   -0.00427256
     atom   16 type  3   force =    -0.00124150    0.00231728   -0.00427256
     atom   17 type  3   force =     0.00124150    0.00231728    0.00427256
     atom   18 type  3   force =    -0.00124150   -0.00231728    0.00427256
     atom   19 type  3   force =    -0.00140989    0.00239400    0.00435375
     atom   20 type  3   force =     0.00140989   -0.00239400    0.00435375
     atom   21 type  3   force =    -0.00140989   -0.00239400   -0.00435375
     atom   22 type  3   force =     0.00140989    0.00239400   -0.00435375

     Total force =     0.026425     Total SCF correction =     0.000004

     Computing stress (Cartesian axis) and pressure

          total   stress  (Ry/bohr**3)                   (kbar)     P=      -14.61
  -0.00002958   0.00000000   0.00000000           -4.35        0.00        0.00
   0.00000000  -0.00009103   0.00000000            0.00      -13.39        0.00
   0.00000000   0.00000000  -0.00017740            0.00        0.00      -26.10

     BFGS Geometry Optimization
     Energy error            =      0.0E+00 Ry
     Gradient error          =      6.8E-03 Ry/Bohr
     Cell gradient error     =      2.6E+01 kbar

     number of scf cycles    =   1
     number of bfgs steps    =   0

     enthalpy           new  =    -156.4557774193 Ry

     new trust radius        =       0.0360553867 bohr
     new conv_thr            =            1.0E-10 Ry

     new unit-cell volume =   1639.96297 a.u.^3 (   243.01744 Ang^3 )
     density =      2.28239 g/cm^3

CELL_PARAMETERS (alat= 13.19928345)
   0.999260416   0.000000000   0.000000000
   0.000000000   1.032527846   0.000000000
   0.000000000   0.000000000   0.691198072

ATOMIC_POSITIONS (crystal)
Ba               0.5000000000        0.5000000000        0.5000779967
Ba               0.0000000000        0.0000000000        0.9999220033
B                0.6306606134        0.2541709952        0.0000205943
B                0.3693393866        0.7458290048        0.0000205943
B                0.1306606134        0.2458290048        0.4999794057
B                0.8693393866        0.7541709952        0.4999794057
H                0.4576871920        0.2842191750        0.0002467802
H                0.5423128080        0.7157808250        0.0002467802
H                0.9576871920        0.2157808250        0.4997532198
H                0.0423128080        0.7842191750        0.4997532198
H                0.7206843146        0.4006911733        0.0000014218
H                0.2793156854        0.5993088267        0.0000014218
H                0.2206843146        0.0993088267        0.4999985782
H                0.7793156854        0.9006911733        0.4999985782
H                0.6689940578        0.1654303570        0.7908737651
H                0.3310059422        0.8345696430        0.7908737651
H                0.1689940578        0.3345696430        0.7091262349
H                0.8310059422        0.6654303570        0.7091262349
H                0.3309931845        0.8345752598        0.2091350952
H                0.6690068155        0.1654247402        0.2091350952
H                0.8309931845        0.6654247402        0.2908649048
H                0.1690068155        0.3345752598        0.2908649048

     Writing config-only to output data dir ./pwscf.save/ :
     XML data file
     NEW-OLD atomic charge density approx. for the potential

[...]

     Energy error            =      2.3E-03 Ry
     Gradient error          =      5.9E-03 Ry/Bohr
     Cell gradient error     =      2.3E+01 kbar

[...]

     enthalpy           old  =    -156.4557774193 Ry
     enthalpy           new  =    -156.4580500157 Ry

     CASE: enthalpy          _new < enthalpy          _old

     WARNING: bfgs curvature condition failed, Theta= 0.877
     new trust radius        =       0.0396892266 bohr
     new conv_thr            =            1.0E-10 Ry

[...]

     Threshold (ethr) on eigenvalues was too large:
     Diagonalizing with lowered threshold

     Davidson diagonalization with overlap
     ethr =  1.71E-08,  avg # of iterations =  3.0

[...]

     new trust radius        =       0.0063371458 bohr
     new conv_thr            =            1.0E-12 Ry

     new unit-cell volume =   1426.92015 a.u.^3 (   211.44775 Ang^3 )
     density =      2.62316 g/cm^3

[...]

     Self-consistent Calculation

[...]

     Threshold (ethr) on eigenvalues was too large:
     Diagonalizing with lowered threshold

     Davidson diagonalization with overlap
     ethr =  2.47E-08,  avg # of iterations =  2.9

[...]

     total energy              =    -156.47491416 Ry
     estimated scf accuracy    <          1.1E-12 Ry

     iteration #  8     ecut=   100.00 Ry     beta= 0.70
     Davidson diagonalization with overlap
     ethr =  1.00E-13,  avg # of iterations =  1.0

     End of self-consistent calculation

[...]

          k = 0.2615-0.5100-0.7551 ( 27848 PWs)   bands (ev):

[...]

          k =-0.5231-0.5100-0.7551 ( 27880 PWs)   bands (ev):

   -23.7577 -23.7577  -9.4678  -9.4678  -9.1116  -9.1116  -9.0478  -9.0478
    -4.8996  -4.8996  -4.3953  -4.3953  -1.4820  -1.4820  -0.7914  -0.7914
     0.3022   0.3022   0.3496   0.3496   0.4960   0.4960   0.7367   0.7367

     highest occupied level (ev):     0.8889

!    total energy              =    -156.47491416 Ry
     estimated scf accuracy    <          3.5E-14 Ry

     The total energy is the sum of the following terms:
     one-electron contribution =     -21.45964387 Ry
     hartree contribution      =      25.26868431 Ry
     xc contribution           =     -49.14500207 Ry
     ewald contribution        =    -111.13895253 Ry

     convergence has been achieved in   8 iterations

     Forces acting on atoms (cartesian axes, Ry/au):

     atom    1 type  2   force =     0.00000000    0.00000000    0.00002135
     atom    2 type  2   force =     0.00000000    0.00000000   -0.00002135
     atom    3 type  1   force =     0.00001493   -0.00000086    0.00010393
     atom    4 type  1   force =    -0.00001493    0.00000086    0.00010393
     atom    5 type  1   force =     0.00001493    0.00000086   -0.00010393
     atom    6 type  1   force =    -0.00001493   -0.00000086   -0.00010393
     atom    7 type  3   force =    -0.00001859   -0.00002148   -0.00003552
     atom    8 type  3   force =     0.00001859    0.00002148   -0.00003552
     atom    9 type  3   force =    -0.00001859    0.00002148    0.00003552
     atom   10 type  3   force =     0.00001859   -0.00002148    0.00003552
     atom   11 type  3   force =    -0.00000489   -0.00004098   -0.00021629
     atom   12 type  3   force =     0.00000489    0.00004098   -0.00021629
     atom   13 type  3   force =    -0.00000489    0.00004098    0.00021629
     atom   14 type  3   force =     0.00000489   -0.00004098    0.00021629
     atom   15 type  3   force =     0.00008195    0.00015412    0.00005342
     atom   16 type  3   force =    -0.00008195   -0.00015412    0.00005342
     atom   17 type  3   force =     0.00008195   -0.00015412   -0.00005342
     atom   18 type  3   force =    -0.00008195    0.00015412   -0.00005342
     atom   19 type  3   force =     0.00008365    0.00010986    0.00006648
     atom   20 type  3   force =    -0.00008365   -0.00010986    0.00006648
     atom   21 type  3   force =     0.00008365   -0.00010986   -0.00006648
     atom   22 type  3   force =    -0.00008365    0.00010986   -0.00006648

     Total force =     0.000689     Total SCF correction =     0.000000

     Computing stress (Cartesian axis) and pressure

          total   stress  (Ry/bohr**3)                   (kbar)     P=       -0.01
   0.00000023   0.00000000   0.00000000            0.03        0.00        0.00
   0.00000000  -0.00000009   0.00000000            0.00       -0.01        0.00
   0.00000000   0.00000000  -0.00000028            0.00        0.00       -0.04

     Energy error            =      7.3E-06 Ry
     Gradient error          =      2.2E-04 Ry/Bohr
     Cell gradient error     =      4.2E-02 kbar

     number of scf cycles    =  50
     number of bfgs steps    =  49

     enthalpy           old  =    -156.4749068160 Ry
     enthalpy           new  =    -156.4749141607 Ry

     CASE: enthalpy          _new < enthalpy          _old

     new trust radius        =       0.0016813096 bohr

     The maximum number of steps has been reached.

     End of BFGS Geometry Optimization
     new unit-cell volume =   1427.05412 a.u.^3 (   211.46760 Ang^3 )
     density =      2.62292 g/cm^3

CELL_PARAMETERS (alat= 13.19928345)
   0.956077219   0.000000000   0.000000000
   0.000000000   0.980515543   0.000000000
   0.000000000   0.000000000   0.661975512

ATOMIC_POSITIONS (crystal)
Ba               0.5000000000        0.5000000000        0.5000609583
Ba               0.0000000000        0.0000000000        0.9999390417
B                0.6102602611        0.2391994492        0.0000052634
B                0.3897397389        0.7608005508        0.0000052634
B                0.1102602611        0.2608005508        0.4999947366
B                0.8897397389        0.7391994492        0.4999947366
H                0.4341140256        0.2921463895        0.0002671763
H                0.5658859744        0.7078536105        0.0002671763
H                0.9341140256        0.2078536105        0.4997328237
H                0.0658859744        0.7921463895        0.4997328237
H                0.7220604182        0.3835391137        0.0001489709
H                0.2779395818        0.6164608863        0.0001489709
H                0.2220604182        0.1164608863        0.4998510291
H                0.7779395818        0.8835391137        0.4998510291
H                0.6391800484        0.1420442909        0.7804617790
H                0.3608199516        0.8579557091        0.7804617790
H                0.1391800484        0.3579557091        0.7195382210
H                0.8608199516        0.6420442909        0.7195382210
H                0.3604808781        0.8578875917        0.2194824761
H                0.6395191219        0.1421124083        0.2194824761
H                0.8604808781        0.6421124083        0.2805175239
H                0.1395191219        0.3578875917        0.2805175239

     Writing config-only to output data dir ./pwscf.save/ :
     XML data file
     NEW-OLD atomic charge density approx. for the potential

     Writing all to output data dir ./pwscf.save/ :
     XML data file, charge density, pseudopotentials, collected wavefunctions

     General routines

     Parallel routines

   This run was terminated on:  10:38:27   9Jul2024

   JOB DONE.