     Program PWSCF v.7.3.1 starts on 12Jul2024 at 15:54:42

     Waiting for input...
     Reading input from standard input

     Current dimensions of program PWSCF are:
     Max number of different atomic species (ntypx) = 10
     Max number of k-points (npk) =  40000
     Max angular momentum in pseudopotentials (lmaxx) =  4

     R & G space division:  proc/nbgrp/npool/nimage =      24
     Subspace diagonalization in iterative solution of the eigenvalue problem:
     a serial algorithm will be used

     Using Slab Decomposition

     Title:
     volume variation

     bravais-lattice index     =            8
     lattice parameter (alat)  =      12.8261  a.u.
     unit-cell volume          =    1498.3188 (a.u.)^3
     number of atoms/cell      =           22
     number of atomic types    =            3
     number of electrons       =        48.00
     number of Kohn-Sham states=           24
     kinetic-energy cutoff     =     100.0000  Ry
     charge density cutoff     =     800.0000  Ry
     scf convergence threshold =      1.0E-10
     mixing beta               =       0.7000
     number of iterations used =            8  plain     mixing
     energy convergence thresh.=      1.0E-05
     force convergence thresh. =      1.0E-05
     press convergence thresh. =      5.0E-01
     Exchange-correlation= PBESOL
                           (   1   4  10   8   0   0   0)
     nstep                     =          300

     celldm(1)=  12.826112  celldm(2)=   1.025571  celldm(3)=   0.692394
     celldm(4)=   0.000000  celldm(5)=   0.000000  celldm(6)=   0.000000

     crystal axes: (cart. coord. in units of alat)
               a(1) = (   1.000000   0.000000   0.000000 )
               a(2) = (   0.000000   1.025571   0.000000 )
               a(3) = (   0.000000   0.000000   0.692394 )

     reciprocal axes: (cart. coord. in units 2 pi/alat)
               b(1) = (  1.000000  0.000000  0.000000 )
               b(2) = (  0.000000  0.975067  0.000000 )
               b(3) = (  0.000000  0.000000  1.444264 )

     PseudoPot. # 1 for B  read from file:
     /home/mehlhorn/pseudos/b_pbesol_v1.4.uspp.F.UPF
     MD5 check sum: 369b69bef2c3aeed4453bd8b804fd6a8
     Pseudo is Ultrasoft + core correction, Zval =  3.0
     Generated by new atomic code, or converted to UPF format
     Using radial grid of  781 points,  4 beta functions with:
                l(1) =   0
                l(2) =   0
                l(3) =   1
                l(4) =   1
     Q(r) pseudized with  8 coefficients,  rinner =    1.100   1.100   1.100

     PseudoPot. # 2 for Ba read from file:
     /home/mehlhorn/pseudos/Ba.nc.z_10.oncvpsp4.dojo.v4-sp.upf
     MD5 check sum: c10ed334bb677c0554edec7181ce9143
     Pseudo is Norm-conserving + core correction, Zval = 10.0
     Generated using ONCVPSP code by D. R. Hamann
     Using radial grid of 1938 points,  8 beta functions with:
                l(1) =   0
                l(2) =   0
                l(3) =   1
                l(4) =   1
                l(5) =   2
                l(6) =   2
                l(7) =   3
                l(8) =   3

     PseudoPot. # 3 for H  read from file:
     /home/mehlhorn/pseudos/H_ONCV_PBEsol-1.0.upf
     MD5 check sum: 398ef8f67c0a7342c05c87c5e19ea467
     Pseudo is Norm-conserving, Zval =  1.0
     Generated using ONCVPSP code by D. R. Hamann
     Using radial grid of 1180 points,  2 beta functions with:
                l(1) =   0
                l(2) =   0

     atomic species   valence    mass     pseudopotential
     B                 3.00    10.81100     B ( 1.00)
     Ba               10.00   137.32700     Ba( 1.00)
     H                 1.00     1.00794     H ( 1.00)

      4 Sym. Ops. (no inversion) found ( 2 have fractional translation)

   Cartesian axes

     site n.     atom                  positions (alat units)
         1        Ba     tau(   1) = (   0.5000000   0.5127855   0.3462657  )
         2        Ba     tau(   2) = (   0.0000000   0.0000000   0.6923255  )
         3        B      tau(   3) = (   0.6102570   0.2453190   0.0000455  )
         4        B      tau(   4) = (   0.3897430   0.7802519   0.0000455  )
         5        B      tau(   5) = (   0.1102570   0.2674665   0.3461516  )
         6        B      tau(   6) = (   0.8897430   0.7581045   0.3461516  )
         7        H      tau(   7) = (   0.4340973   0.2996264   0.0001599  )
         8        H      tau(   8) = (   0.5659027   0.7259445   0.0001599  )
         9        H      tau(   9) = (   0.9340973   0.2131590   0.3460372  )
        10        H      tau(  10) = (   0.0659027   0.8124119   0.3460372  )
        11        H      tau(  11) = (   0.7220603   0.3933629  -0.0000058  )
        12        H      tau(  12) = (   0.2779397   0.6322081  -0.0000058  )
        13        H      tau(  13) = (   0.2220603   0.1194226   0.3462029  )
        14        H      tau(  14) = (   0.7779397   0.9061483   0.3462029  )
        15        H      tau(  15) = (   0.6392499   0.1457279   0.5404125  )
        16        H      tau(  16) = (   0.3607501   0.8798430   0.5404125  )
        17        H      tau(  17) = (   0.1392499   0.3670576   0.4981787  )
        18        H      tau(  18) = (   0.8607501   0.6585133   0.4981787  )
        19        H      tau(  19) = (   0.3605328   0.8798946   0.1519977  )
        20        H      tau(  20) = (   0.6394672   0.1456763   0.1519977  )
        21        H      tau(  21) = (   0.8605328   0.6584617   0.1941994  )
        22        H      tau(  22) = (   0.1394672   0.3671092   0.1941994  )

     number of k points=    27
                       cart. coord. in units 2pi/alat
        k(    1) = (   0.0000000   0.0000000   0.0000000), wk =   0.0312500
        k(    2) = (   0.0000000   0.0000000   0.3610660), wk =   0.0625000
        k(    3) = (   0.0000000   0.0000000  -0.7221320), wk =   0.0312500
        k(    4) = (   0.0000000   0.2437667   0.0000000), wk =   0.0625000
        k(    5) = (   0.0000000   0.2437667   0.3610660), wk =   0.1250000
        k(    6) = (   0.0000000   0.2437667  -0.7221320), wk =   0.0625000
        k(    7) = (   0.0000000  -0.4875333   0.0000000), wk =   0.0312500
        k(    8) = (   0.0000000  -0.4875333   0.3610660), wk =   0.0625000
        k(    9) = (   0.0000000  -0.4875333  -0.7221320), wk =   0.0312500
        k(   10) = (   0.2500000   0.0000000   0.0000000), wk =   0.0625000
        k(   11) = (   0.2500000   0.0000000   0.3610660), wk =   0.1250000
        k(   12) = (   0.2500000   0.0000000  -0.7221320), wk =   0.0625000
        k(   13) = (   0.2500000   0.2437667   0.0000000), wk =   0.1250000
        k(   14) = (   0.2500000   0.2437667   0.3610660), wk =   0.2500000
        k(   15) = (   0.2500000   0.2437667  -0.7221320), wk =   0.1250000
        k(   16) = (   0.2500000  -0.4875333   0.0000000), wk =   0.0625000
        k(   17) = (   0.2500000  -0.4875333   0.3610660), wk =   0.1250000
        k(   18) = (   0.2500000  -0.4875333  -0.7221320), wk =   0.0625000
        k(   19) = (  -0.5000000   0.0000000   0.0000000), wk =   0.0312500
        k(   20) = (  -0.5000000   0.0000000   0.3610660), wk =   0.0625000
        k(   21) = (  -0.5000000   0.0000000  -0.7221320), wk =   0.0312500
        k(   22) = (  -0.5000000   0.2437667   0.0000000), wk =   0.0625000
        k(   23) = (  -0.5000000   0.2437667   0.3610660), wk =   0.1250000
        k(   24) = (  -0.5000000   0.2437667  -0.7221320), wk =   0.0625000
        k(   25) = (  -0.5000000  -0.4875333   0.0000000), wk =   0.0312500
        k(   26) = (  -0.5000000  -0.4875333   0.3610660), wk =   0.0625000
        k(   27) = (  -0.5000000  -0.4875333  -0.7221320), wk =   0.0312500

     Initial potential from superposition of free atoms

     starting charge      47.9682, renormalised to      48.0000
     Starting wfcs are   42 randomized atomic wfcs

     Self-consistent Calculation

     iteration #  1     ecut=   100.00 Ry     beta= 0.70
     Davidson diagonalization with overlap
     ethr =  1.00E-02,  avg # of iterations =  2.0

     total energy              =    -155.94922214 Ry
     estimated scf accuracy    <       1.97909142 Ry

[...]

     End of self-consistent calculation

          k = 0.0000 0.0000 0.0000 ( 25305 PWs)   bands (ev):

   -24.2608 -24.2536  -9.7295  -9.6568  -9.4928  -9.4610  -9.4284  -9.3748
    -6.1185  -5.1929  -4.6111  -4.4487  -1.8514  -0.9480  -0.9393  -0.5478
    -0.1895  -0.1881  -0.1607  -0.0125   0.1389   0.5338   0.5594   0.5997

[...]

          k =-0.5000 0.0000 0.0000 ( 25216 PWs)   bands (ev):

[...]

     highest occupied level (ev):     0.5997

!    total energy              =    -156.46799052 Ry
     estimated scf accuracy    <          4.8E-11 Ry

     The total energy is the sum of the following terms:
     one-electron contribution =     -24.11064316 Ry
     hartree contribution      =      25.88388565 Ry
     xc contribution           =     -48.89852530 Ry
     ewald contribution        =    -109.34270772 Ry

     convergence has been achieved in  11 iterations

     Forces acting on atoms (cartesian axes, Ry/au):

     atom    1 type  2   force =     0.00000000    0.00000000    0.00001056
     atom    2 type  2   force =     0.00000000    0.00000000   -0.00001056
     atom    3 type  1   force =     0.00028747    0.00144378   -0.00001451
     atom    4 type  1   force =    -0.00028747   -0.00144378   -0.00001451
     atom    5 type  1   force =     0.00028747   -0.00144378    0.00001451
     atom    6 type  1   force =    -0.00028747    0.00144378    0.00001451
     atom    7 type  3   force =     0.01266891   -0.00322057   -0.00002024
     atom    8 type  3   force =    -0.01266891    0.00322057   -0.00002024
     atom    9 type  3   force =     0.01266891    0.00322057    0.00002024
     atom   10 type  3   force =    -0.01266891   -0.00322057    0.00002024
     atom   11 type  3   force =    -0.00837242   -0.01012833    0.00000770
     atom   12 type  3   force =     0.00837242    0.01012833    0.00000770
     atom   13 type  3   force =    -0.00837242    0.01012833   -0.00000770
     atom   14 type  3   force =     0.00837242   -0.01012833   -0.00000770
     atom   15 type  3   force =    -0.00155385    0.00744451    0.01130767
     atom   16 type  3   force =     0.00155385   -0.00744451    0.01130767
     atom   17 type  3   force =    -0.00155385   -0.00744451   -0.01130767
     atom   18 type  3   force =     0.00155385    0.00744451   -0.01130767
     atom   19 type  3   force =     0.00161020   -0.00746442   -0.01131361
     atom   20 type  3   force =    -0.00161020    0.00746442   -0.01131361
     atom   21 type  3   force =     0.00161020    0.00746442    0.01131361
     atom   22 type  3   force =    -0.00161020   -0.00746442    0.01131361

     Total force =     0.053581     Total SCF correction =     0.000004

     Computing stress (Cartesian axis) and pressure

          total   stress  (Ry/bohr**3)                   (kbar)     P=      -27.40
  -0.00017343   0.00000000   0.00000000          -25.51        0.00        0.00
   0.00000000  -0.00017689   0.00000000            0.00      -26.02        0.00
[...]
     1.01508823     0.00000000     0.00000000
     0.00000000     1.02515163     0.00000000
     0.00000000     0.00000000     0.68238143
New lattice vectors in INITIAL alat:
     1.01508823     0.00000000     0.00000000
     0.00000000     1.02515163     0.00000000
     0.00000000     0.00000000     0.68238143
New lattice vectors in NEW alat (for information only):
     1.00000000     0.00000000     0.00000000
     0.00000000     1.00991382     0.00000000
     0.00000000     0.00000000     0.67223854
Discrepancy in bohr =     0.000000    0.000000    0.000000
     new conv_thr            =            1.0E-12 Ry

     new unit-cell volume =   1498.31880 a.u.^3 (   222.02794 Ang^3 )
     density =      2.49816 g/cm^3

[...]

ATOMIC_POSITIONS (crystal)
Ba               0.5000000000        0.5000000000        0.4999998235
Ba               0.0000000000        0.0000000000        1.0000001765
B                0.6188507573        0.2461443725        0.0000027330
B                0.3811492427        0.7538556275        0.0000027330
B                0.1188507573        0.2538556275        0.4999972670
B                0.8811492427        0.7461443725        0.4999972670
H                0.4452692504        0.2889499180       -0.0000206910
H                0.5547307496        0.7110500820       -0.0000206910
H                0.9452692504        0.2110500820        0.5000206910
H                0.0547307496        0.7889499180        0.5000206910
H                0.7190599842        0.3938981650        0.0000057535
H                0.2809400158        0.6061018350        0.0000057535
H                0.2190599842        0.1061018350        0.4999942465
H                0.7809400158        0.8938981650        0.4999942465
H                0.6522073685        0.1522770180        0.7805082759
H                0.3477926315        0.8477229820        0.7805082759
H                0.1522073685        0.3477229820        0.7194917241
H                0.8477926315        0.6522770180        0.7194917241
H                0.3478035531        0.8477209802        0.2195042424
H                0.6521964469        0.1522790198        0.2195042424
H                0.8478035531        0.6522790198        0.2804957576
H                0.1521964469        0.3477209802        0.2804957576

     Writing config-only to output data dir ./pwscf.save/ :
     XML data file
     NEW-OLD atomic charge density approx. for the potential

[...]

     Threshold (ethr) on eigenvalues was too large:
     Diagonalizing with lowered threshold

     Davidson diagonalization with overlap
     ethr =  2.66E-11,  avg # of iterations =  4.4

[...]

     Volume is kept fixed: isostatic pressure set to zero
     Energy error            =      4.4E-09 Ry
     Gradient error          =      8.3E-06 Ry/Bohr
     Cell gradient error     =      1.5E-03 kbar
ibrav =      8
 celldm(1) =     13.01963581
 celldm(2) =      1.00991382
 celldm(3) =      0.67223854
Input lattice vectors:
     1.01508823     0.00000000     0.00000000
     0.00000000     1.02515163     0.00000000
     0.00000000     0.00000000     0.68238143
New lattice vectors in INITIAL alat:
     1.01508823     0.00000000     0.00000000
     0.00000000     1.02515163     0.00000000
     0.00000000     0.00000000     0.68238143
New lattice vectors in NEW alat (for information only):
     1.00000000     0.00000000     0.00000000
     0.00000000     1.00991382     0.00000000
     0.00000000     0.00000000     0.67223854
Discrepancy in bohr =     0.000000    0.000000    0.000000

     bfgs converged in  58 scf cycles and  57 bfgs steps
     (criteria: energy <  1.0E-05 Ry, force <  1.0E-05 Ry/Bohr, cell <  5.0E-01 kbar)

     End of BFGS Geometry Optimization

     Final enthalpy           =    -156.4732031693 Ry

     File ./pwscf.bfgs deleted, as requested
Begin final coordinates
     new unit-cell volume =   1498.31880 a.u.^3 (   222.02794 Ang^3 )
     density =      2.49816 g/cm^3

CELL_PARAMETERS (alat= 12.82611250)
   1.015088228   0.000000000   0.000000000
   0.000000000   1.025151626   0.000000000
   0.000000000   0.000000000   0.682381429

ATOMIC_POSITIONS (crystal)
Ba               0.5000000000        0.5000000000        0.4999998235
Ba               0.0000000000        0.0000000000        1.0000001765
B                0.6188507573        0.2461443725        0.0000027330
B                0.3811492427        0.7538556275        0.0000027330
B                0.1188507573        0.2538556275        0.4999972670
B                0.8811492427        0.7461443725        0.4999972670
H                0.4452692504        0.2889499180       -0.0000206910
H                0.5547307496        0.7110500820       -0.0000206910
H                0.9452692504        0.2110500820        0.5000206910
H                0.0547307496        0.7889499180        0.5000206910
H                0.7190599842        0.3938981650        0.0000057535
H                0.2809400158        0.6061018350        0.0000057535
H                0.2190599842        0.1061018350        0.4999942465
H                0.7809400158        0.8938981650        0.4999942465
H                0.6522073685        0.1522770180        0.7805082759
H                0.3477926315        0.8477229820        0.7805082759
H                0.1522073685        0.3477229820        0.7194917241
H                0.8477926315        0.6522770180        0.7194917241
H                0.3478035531        0.8477209802        0.2195042424
H                0.6521964469        0.1522790198        0.2195042424
H                0.8478035531        0.6522790198        0.2804957576
H                0.1521964469        0.3477209802        0.2804957576
End final coordinates

     Writing config-only to output data dir ./pwscf.save/ :
     XML data file

     Final scf calculation at the relaxed structure.
     The G-vectors are recalculated for the final unit cell
     Results may differ from those at the preceding step.

     Using Slab Decomposition

     Title:
     volume variation

     bravais-lattice index     =            8
     lattice parameter (alat)  =      12.8261  a.u.
     unit-cell volume          =    1498.3188 (a.u.)^3
     number of atoms/cell      =           22
     number of atomic types    =            3
     number of electrons       =        48.00
     number of Kohn-Sham states=           24
     kinetic-energy cutoff     =     100.0000  Ry
     charge density cutoff     =     800.0000  Ry
     scf convergence threshold =      1.0E-12
     mixing beta               =       0.7000
     number of iterations used =            8  plain     mixing
     press convergence thresh. =      5.0E-01
     Exchange-correlation= PBESOL
                           (   1   4  10   8   0   0   0)

     celldm(1)=  12.826112  celldm(2)=   1.025571  celldm(3)=   0.692394
     celldm(4)=   0.000000  celldm(5)=   0.000000  celldm(6)=   0.000000

     crystal axes: (cart. coord. in units of alat)
               a(1) = (   1.015088   0.000000   0.000000 )
               a(2) = (   0.000000   1.025152   0.000000 )
               a(3) = (   0.000000   0.000000   0.682381 )

     reciprocal axes: (cart. coord. in units 2 pi/alat)
               b(1) = (  0.985136  0.000000  0.000000 )
               b(2) = (  0.000000  0.975465  0.000000 )
               b(3) = (  0.000000  0.000000  1.465456 )

     PseudoPot. # 1 for B  read from file:
     /home/mehlhorn/pseudos/b_pbesol_v1.4.uspp.F.UPF
     MD5 check sum: 369b69bef2c3aeed4453bd8b804fd6a8
     Pseudo is Ultrasoft + core correction, Zval =  3.0
     Generated by new atomic code, or converted to UPF format
     Using radial grid of  781 points,  4 beta functions with:
                l(1) =   0
                l(2) =   0
                l(3) =   1
                l(4) =   1
     Q(r) pseudized with  8 coefficients,  rinner =    1.100   1.100   1.100

     PseudoPot. # 2 for Ba read from file:
     /home/mehlhorn/pseudos/Ba.nc.z_10.oncvpsp4.dojo.v4-sp.upf
     MD5 check sum: c10ed334bb677c0554edec7181ce9143
     Pseudo is Norm-conserving + core correction, Zval = 10.0
     Generated using ONCVPSP code by D. R. Hamann
     Using radial grid of 1938 points,  8 beta functions with:
                l(1) =   0
                l(2) =   0
                l(3) =   1
                l(4) =   1
                l(5) =   2
                l(6) =   2
                l(7) =   3
                l(8) =   3

     PseudoPot. # 3 for H  read from file:
     /home/mehlhorn/pseudos/H_ONCV_PBEsol-1.0.upf
     MD5 check sum: 398ef8f67c0a7342c05c87c5e19ea467
     Pseudo is Norm-conserving, Zval =  1.0
     Generated using ONCVPSP code by D. R. Hamann
     Using radial grid of 1180 points,  2 beta functions with:
                l(1) =   0
                l(2) =   0

     atomic species   valence    mass     pseudopotential
     B                 3.00    10.81100     B ( 1.00)
     Ba               10.00   137.32700     Ba( 1.00)
     H                 1.00     1.00794     H ( 1.00)

      4 Sym. Ops. (no inversion) found ( 2 have fractional translation)

   Cartesian axes

     site n.     atom                  positions (alat units)
         1        Ba     tau(   1) = (   0.5075441   0.5125758   0.3411906  )
         2        Ba     tau(   2) = (   0.0000000   0.0000000   0.6823815  )
         3        B      tau(   3) = (   0.6281881   0.2523353   0.0000019  )
         4        B      tau(   4) = (   0.3869001   0.7728163   0.0000019  )
         5        B      tau(   5) = (   0.1206440   0.2602405   0.3411888  )
         6        B      tau(   6) = (   0.8944442   0.7649111   0.3411888  )
         7        H      tau(   7) = (   0.4519876   0.2962175  -0.0000141  )
         8        H      tau(   8) = (   0.5631007   0.7289341  -0.0000141  )
         9        H      tau(   9) = (   0.9595317   0.2163583   0.3412048  )
        10        H      tau(  10) = (   0.0555565   0.8087933   0.3412048  )
        11        H      tau(  11) = (   0.7299093   0.4038053   0.0000039  )
        12        H      tau(  12) = (   0.2851789   0.6213463   0.0000039  )
        13        H      tau(  13) = (   0.2223652   0.1087705   0.3411868  )
        14        H      tau(  14) = (   0.7927230   0.9163812   0.3411868  )
        15        H      tau(  15) = (   0.6620480   0.1561070   0.5326044  )
        16        H      tau(  16) = (   0.3530402   0.8690446   0.5326044  )
        17        H      tau(  17) = (   0.1545039   0.3564688   0.4909678  )
        18        H      tau(  18) = (   0.8605843   0.6686828   0.4909678  )
        19        H      tau(  19) = (   0.3530513   0.8690425   0.1497856  )
        20        H      tau(  20) = (   0.6620369   0.1561091   0.1497856  )
        21        H      tau(  21) = (   0.8605954   0.6686849   0.1914051  )
        22        H      tau(  22) = (   0.1544928   0.3564667   0.1914051  )

     number of k points=    27
                       cart. coord. in units 2pi/alat
        k(    1) = (   0.0000000   0.0000000   0.0000000), wk =   0.0312500
        k(    2) = (   0.0000000   0.0000000   0.3663640), wk =   0.0625000
        k(    3) = (   0.0000000   0.0000000  -0.7327280), wk =   0.0312500
        k(    4) = (   0.0000000   0.2438664   0.0000000), wk =   0.0625000
        k(    5) = (   0.0000000   0.2438664   0.3663640), wk =   0.1250000
        k(    6) = (   0.0000000   0.2438664  -0.7327280), wk =   0.0625000
        k(    7) = (   0.0000000  -0.4877327   0.0000000), wk =   0.0312500
        k(    8) = (   0.0000000  -0.4877327   0.3663640), wk =   0.0625000
        k(    9) = (   0.0000000  -0.4877327  -0.7327280), wk =   0.0312500
        k(   10) = (   0.2462840   0.0000000   0.0000000), wk =   0.0625000
        k(   11) = (   0.2462840   0.0000000   0.3663640), wk =   0.1250000
        k(   12) = (   0.2462840   0.0000000  -0.7327280), wk =   0.0625000
        k(   13) = (   0.2462840   0.2438664   0.0000000), wk =   0.1250000
        k(   14) = (   0.2462840   0.2438664   0.3663640), wk =   0.2500000
        k(   15) = (   0.2462840   0.2438664  -0.7327280), wk =   0.1250000
        k(   16) = (   0.2462840  -0.4877327   0.0000000), wk =   0.0625000
        k(   17) = (   0.2462840  -0.4877327   0.3663640), wk =   0.1250000
        k(   18) = (   0.2462840  -0.4877327  -0.7327280), wk =   0.0625000
        k(   19) = (  -0.4925680   0.0000000   0.0000000), wk =   0.0312500
        k(   20) = (  -0.4925680   0.0000000   0.3663640), wk =   0.0625000
        k(   21) = (  -0.4925680   0.0000000  -0.7327280), wk =   0.0312500
        k(   22) = (  -0.4925680   0.2438664   0.0000000), wk =   0.0625000
        k(   23) = (  -0.4925680   0.2438664   0.3663640), wk =   0.1250000
        k(   24) = (  -0.4925680   0.2438664  -0.7327280), wk =   0.0625000
        k(   25) = (  -0.4925680  -0.4877327   0.0000000), wk =   0.0312500
        k(   26) = (  -0.4925680  -0.4877327   0.3663640), wk =   0.0625000
        k(   27) = (  -0.4925680  -0.4877327  -0.7327280), wk =   0.0312500

     Initial potential from superposition of free atoms

     starting charge      47.9682, renormalised to      48.0000
     Starting wfcs are   42 randomized atomic wfcs

     Self-consistent Calculation

[...]

     total energy              =    -156.47320340 Ry
     estimated scf accuracy    <          2.5E-12 Ry

     iteration # 13     ecut=   100.00 Ry     beta= 0.70
     Davidson diagonalization with overlap
     ethr =  1.00E-13,  avg # of iterations =  1.0

     End of self-consistent calculation

[...]

          k = 0.2463-0.4877-0.7327 ( 25324 PWs)   bands (ev):

[...]

          k =-0.4926-0.4877-0.7327 ( 25320 PWs)   bands (ev):

   -24.2118 -24.2118  -9.8747  -9.8747  -9.5181  -9.5181  -9.4831  -9.4831
    -5.2323  -5.2323  -4.7990  -4.7990  -1.7249  -1.7249  -1.1520  -1.1520
    -0.1003  -0.1003   0.0626   0.0626   0.0943   0.0943   0.3526   0.3526

     highest occupied level (ev):     0.4772

!    total energy              =    -156.47320340 Ry
     estimated scf accuracy    <          7.9E-13 Ry

     The total energy is the sum of the following terms:
     one-electron contribution =     -26.91786248 Ry
     hartree contribution      =      27.29022677 Ry
     xc contribution           =     -49.07960538 Ry
     ewald contribution        =    -107.76596231 Ry

     convergence has been achieved in  13 iterations

     Forces acting on atoms (cartesian axes, Ry/au):

     atom    1 type  2   force =     0.00000000    0.00000000   -0.00000246
     atom    2 type  2   force =     0.00000000    0.00000000    0.00000246
     atom    3 type  1   force =    -0.00000150    0.00000109   -0.00000289
     atom    4 type  1   force =     0.00000150   -0.00000109   -0.00000289
     atom    5 type  1   force =    -0.00000150   -0.00000109    0.00000289
     atom    6 type  1   force =     0.00000150    0.00000109    0.00000289
     atom    7 type  3   force =     0.00000236   -0.00000006    0.00000836
     atom    8 type  3   force =    -0.00000236    0.00000006    0.00000836
     atom    9 type  3   force =     0.00000236    0.00000006   -0.00000836
     atom   10 type  3   force =    -0.00000236   -0.00000006   -0.00000836
     atom   11 type  3   force =    -0.00000107   -0.00000201   -0.00000055
     atom   12 type  3   force =     0.00000107    0.00000201   -0.00000055
     atom   13 type  3   force =    -0.00000107    0.00000201    0.00000055
     atom   14 type  3   force =     0.00000107   -0.00000201    0.00000055
     atom   15 type  3   force =     0.00000333   -0.00000110   -0.00000051
     atom   16 type  3   force =    -0.00000333    0.00000110   -0.00000051
     atom   17 type  3   force =     0.00000333    0.00000110    0.00000051
     atom   18 type  3   force =    -0.00000333   -0.00000110    0.00000051
     atom   19 type  3   force =     0.00000230   -0.00000238   -0.00000324
     atom   20 type  3   force =    -0.00000230    0.00000238   -0.00000324
     atom   21 type  3   force =     0.00000230    0.00000238    0.00000324
     atom   22 type  3   force =    -0.00000230   -0.00000238    0.00000324

     Total force =     0.000023     Total SCF correction =     0.000000

     Computing stress (Cartesian axis) and pressure

          total   stress  (Ry/bohr**3)                   (kbar)     P=       -6.06
  -0.00004115   0.00000000   0.00000000           -6.05        0.00        0.00
   0.00000000  -0.00004118   0.00000000            0.00       -6.06        0.00
   0.00000000   0.00000000  -0.00004118            0.00        0.00       -6.06

     Writing all to output data dir ./pwscf.save/ :
     XML data file, charge density, pseudopotentials, collected wavefunctions

     General routines

     Parallel routines

   This run was terminated on:  18: 0:45  12Jul2024

   JOB DONE.