     Program PWSCF v.7.3.1 starts on  9Jul2024 at 11: 6:44

     Waiting for input...
     Reading input from standard input

     Current dimensions of program PWSCF are:
     Max number of different atomic species (ntypx) = 10
     Max number of k-points (npk) =  40000
     Max angular momentum in pseudopotentials (lmaxx) =  4

     R & G space division:  proc/nbgrp/npool/nimage =      24
     Subspace diagonalization in iterative solution of the eigenvalue problem:
     a serial algorithm will be used

     Using Slab Decomposition

     Title:
     InitGeomOpt

     bravais-lattice index     =            8
     lattice parameter (alat)  =      12.6195  a.u.
     unit-cell volume          =    1427.0541 (a.u.)^3
     number of atoms/cell      =           22
     number of atomic types    =            3
     number of electrons       =        48.00
     number of Kohn-Sham states=           24
     kinetic-energy cutoff     =     100.0000  Ry
     charge density cutoff     =     800.0000  Ry
     scf convergence threshold =      1.0E-10
     mixing beta               =       0.7000
     number of iterations used =            8  plain     mixing
     energy convergence thresh.=      1.0E-05
     force convergence thresh. =      1.0E-05
     press convergence thresh. =      1.0E-01
     Exchange-correlation= PBESOL
                           (   1   4  10   8   0   0   0)
     nstep                     =           50

     celldm(1)=  12.619534  celldm(2)=   1.025561  celldm(3)=   0.692387
     celldm(4)=   0.000000  celldm(5)=   0.000000  celldm(6)=   0.000000

     crystal axes: (cart. coord. in units of alat)
               a(1) = (   1.000000   0.000000   0.000000 )
               a(2) = (   0.000000   1.025561   0.000000 )
               a(3) = (   0.000000   0.000000   0.692387 )

     reciprocal axes: (cart. coord. in units 2 pi/alat)
               b(1) = (  1.000000  0.000000  0.000000 )
               b(2) = (  0.000000  0.975076  0.000000 )
               b(3) = (  0.000000  0.000000  1.444279 )

     PseudoPot. # 1 for B  read from file:
     /home/mehlhorn/pseudos/b_pbesol_v1.4.uspp.F.UPF
     MD5 check sum: 369b69bef2c3aeed4453bd8b804fd6a8
     Pseudo is Ultrasoft + core correction, Zval =  3.0
     Generated by new atomic code, or converted to UPF format
     Using radial grid of  781 points,  4 beta functions with:
                l(1) =   0
                l(2) =   0
                l(3) =   1
                l(4) =   1
     Q(r) pseudized with  8 coefficients,  rinner =    1.100   1.100   1.100

     PseudoPot. # 2 for Ba read from file:
     /home/mehlhorn/pseudos/Ba.nc.z_10.oncvpsp4.dojo.v4-sp.upf
     MD5 check sum: c10ed334bb677c0554edec7181ce9143
     Pseudo is Norm-conserving + core correction, Zval = 10.0
     Generated using ONCVPSP code by D. R. Hamann
     Using radial grid of 1938 points,  8 beta functions with:
                l(1) =   0
                l(2) =   0
                l(3) =   1
                l(4) =   1
                l(5) =   2
                l(6) =   2
                l(7) =   3
                l(8) =   3

     PseudoPot. # 3 for H  read from file:
     /home/mehlhorn/pseudos/H_ONCV_PBEsol-1.0.upf
     MD5 check sum: 398ef8f67c0a7342c05c87c5e19ea467
     Pseudo is Norm-conserving, Zval =  1.0
     Generated using ONCVPSP code by D. R. Hamann
     Using radial grid of 1180 points,  2 beta functions with:
                l(1) =   0
                l(2) =   0

     atomic species   valence    mass     pseudopotential
     B                 3.00    10.81100     B ( 1.00)
     Ba               10.00   137.32700     Ba( 1.00)
     H                 1.00     1.00794     H ( 1.00)

      4 Sym. Ops. (no inversion) found ( 2 have fractional translation)

   Cartesian axes

     site n.     atom                  positions (alat units)
         1        Ba     tau(   1) = (   0.5000000   0.5127805   0.3462357  )
         2        Ba     tau(   2) = (   0.0000000   0.0000000   0.6923449  )
         3        B      tau(   3) = (   0.6102603   0.2453136   0.0000036  )
         4        B      tau(   4) = (   0.3897397   0.7802474   0.0000036  )
         5        B      tau(   5) = (   0.1102603   0.2674669   0.3461899  )
         6        B      tau(   6) = (   0.8897397   0.7580942   0.3461899  )
         7        H      tau(   7) = (   0.4341140   0.2996140   0.0001850  )
         8        H      tau(   8) = (   0.5658860   0.7259471   0.0001850  )
         9        H      tau(   9) = (   0.9341140   0.2131666   0.3460085  )
        10        H      tau(  10) = (   0.0658860   0.8123945   0.3460085  )
        11        H      tau(  11) = (   0.7220604   0.3933428   0.0001031  )
        12        H      tau(  12) = (   0.2779396   0.6322183   0.0001031  )
        13        H      tau(  13) = (   0.2220604   0.1194377   0.3460904  )
        14        H      tau(  14) = (   0.7779396   0.9061233   0.3460904  )
        15        H      tau(  15) = (   0.6391800   0.1456751   0.5403817  )
        16        H      tau(  16) = (   0.3608200   0.8798859   0.5403817  )
        17        H      tau(  17) = (   0.1391800   0.3671054   0.4981990  )
        18        H      tau(  18) = (   0.8608200   0.6584556   0.4981990  )
        19        H      tau(  19) = (   0.3604809   0.8798161   0.1519668  )
        20        H      tau(  20) = (   0.6395191   0.1457449   0.1519668  )
        21        H      tau(  21) = (   0.8604809   0.6585255   0.1942267  )
        22        H      tau(  22) = (   0.1395191   0.3670356   0.1942267  )

     number of k points=    27
                       cart. coord. in units 2pi/alat
        k(    1) = (   0.0000000   0.0000000   0.0000000), wk =   0.0312500
        k(    2) = (   0.0000000   0.0000000   0.3610697), wk =   0.0625000
        k(    3) = (   0.0000000   0.0000000  -0.7221394), wk =   0.0312500
        k(    4) = (   0.0000000   0.2437690   0.0000000), wk =   0.0625000
        k(    5) = (   0.0000000   0.2437690   0.3610697), wk =   0.1250000
        k(    6) = (   0.0000000   0.2437690  -0.7221394), wk =   0.0625000
        k(    7) = (   0.0000000  -0.4875380   0.0000000), wk =   0.0312500
        k(    8) = (   0.0000000  -0.4875380   0.3610697), wk =   0.0625000
        k(    9) = (   0.0000000  -0.4875380  -0.7221394), wk =   0.0312500
        k(   10) = (   0.2500000   0.0000000   0.0000000), wk =   0.0625000
        k(   11) = (   0.2500000   0.0000000   0.3610697), wk =   0.1250000
        k(   12) = (   0.2500000   0.0000000  -0.7221394), wk =   0.0625000
        k(   13) = (   0.2500000   0.2437690   0.0000000), wk =   0.1250000
        k(   14) = (   0.2500000   0.2437690   0.3610697), wk =   0.2500000
        k(   15) = (   0.2500000   0.2437690  -0.7221394), wk =   0.1250000
        k(   16) = (   0.2500000  -0.4875380   0.0000000), wk =   0.0625000
        k(   17) = (   0.2500000  -0.4875380   0.3610697), wk =   0.1250000
        k(   18) = (   0.2500000  -0.4875380  -0.7221394), wk =   0.0625000
        k(   19) = (  -0.5000000   0.0000000   0.0000000), wk =   0.0312500
        k(   20) = (  -0.5000000   0.0000000   0.3610697), wk =   0.0625000
        k(   21) = (  -0.5000000   0.0000000  -0.7221394), wk =   0.0312500
        k(   22) = (  -0.5000000   0.2437690   0.0000000), wk =   0.0625000
        k(   23) = (  -0.5000000   0.2437690   0.3610697), wk =   0.1250000
        k(   24) = (  -0.5000000   0.2437690  -0.7221394), wk =   0.0625000
        k(   25) = (  -0.5000000  -0.4875380   0.0000000), wk =   0.0312500
        k(   26) = (  -0.5000000  -0.4875380   0.3610697), wk =   0.0625000
        k(   27) = (  -0.5000000  -0.4875380  -0.7221394), wk =   0.0312500

     Initial potential from superposition of free atoms

     starting charge      47.9682, renormalised to      48.0000
     Starting wfcs are   42 randomized atomic wfcs

     Self-consistent Calculation

     iteration #  1     ecut=   100.00 Ry     beta= 0.70
     Davidson diagonalization with overlap
     ethr =  1.00E-02,  avg # of iterations =  2.0

     total energy              =    -155.92714028 Ry
     estimated scf accuracy    <       2.08821032 Ry

[...]

     End of self-consistent calculation

          k = 0.0000 0.0000 0.0000 ( 24047 PWs)   bands (ev):

   -23.7774 -23.7678  -9.3489  -9.2556  -9.0487  -9.0073  -8.9783  -8.9109
    -5.9848  -5.0156  -4.3032  -4.1569  -1.6835  -0.7617  -0.6818  -0.3366
     0.0493   0.0708   0.1208   0.2389   0.4074   0.8268   0.8416   0.8846

[...]

          k =-0.5000 0.0000 0.0000 ( 24112 PWs)   bands (ev):

[...]

     highest occupied level (ev):     0.8882

!    total energy              =    -156.47485658 Ry
     estimated scf accuracy    <          5.0E-11 Ry

     The total energy is the sum of the following terms:
     one-electron contribution =     -21.47189077 Ry
     hartree contribution      =      25.27335120 Ry
     xc contribution           =     -49.14526356 Ry
     ewald contribution        =    -111.13105345 Ry

     convergence has been achieved in  11 iterations

     Forces acting on atoms (cartesian axes, Ry/au):

     atom    1 type  2   force =     0.00000000    0.00000000    0.00002415
     atom    2 type  2   force =     0.00000000    0.00000000   -0.00002415
     atom    3 type  1   force =     0.00000177    0.00000289    0.00007554
     atom    4 type  1   force =    -0.00000177   -0.00000289    0.00007554
     atom    5 type  1   force =     0.00000177   -0.00000289   -0.00007554
     atom    6 type  1   force =    -0.00000177    0.00000289   -0.00007554
     atom    7 type  3   force =    -0.00005432    0.00002444   -0.00002963
     atom    8 type  3   force =     0.00005432   -0.00002444   -0.00002963
     atom    9 type  3   force =    -0.00005432   -0.00002444    0.00002963
     atom   10 type  3   force =     0.00005432    0.00002444    0.00002963
     atom   11 type  3   force =     0.00001854    0.00004325   -0.00016764
     atom   12 type  3   force =    -0.00001854   -0.00004325   -0.00016764
     atom   13 type  3   force =     0.00001854   -0.00004325    0.00016764
     atom   14 type  3   force =    -0.00001854    0.00004325    0.00016764
     atom   15 type  3   force =     0.00008845    0.00007002    0.00002268
     atom   16 type  3   force =    -0.00008845   -0.00007002    0.00002268
     atom   17 type  3   force =     0.00008845   -0.00007002   -0.00002268
     atom   18 type  3   force =    -0.00008845    0.00007002   -0.00002268
     atom   19 type  3   force =     0.00005541    0.00012994    0.00006816
     atom   20 type  3   force =    -0.00005541   -0.00012994    0.00006816
     atom   21 type  3   force =     0.00005541   -0.00012994   -0.00006816
     atom   22 type  3   force =    -0.00005541    0.00012994   -0.00006816

     Total force =     0.000561     Total SCF correction =     0.000004

     Computing stress (Cartesian axis) and pressure

          total   stress  (Ry/bohr**3)                   (kbar)     P=        0.03
   0.00000024   0.00000000   0.00000000            0.04        0.00        0.00
   0.00000000   0.00000028   0.00000000            0.00        0.04        0.00
   0.00000000   0.00000000   0.00000016            0.00        0.00        0.02

     BFGS Geometry Optimization
     Energy error            =      0.0E+00 Ry
     Gradient error          =      1.7E-04 Ry/Bohr
     Cell gradient error     =      4.2E-02 kbar

     number of scf cycles    =   1
     number of bfgs steps    =   0

     enthalpy           new  =    -156.4748565776 Ry

     new trust radius        =       0.0001741219 bohr
     new conv_thr            =            1.0E-10 Ry

     new unit-cell volume =   1427.07861 a.u.^3 (   211.47123 Ang^3 )
     density =      2.62287 g/cm^3

CELL_PARAMETERS (alat= 12.61953421)
   1.000006118   0.000000000   0.000000000
   0.000000000   1.025568321   0.000000000
   0.000000000   0.000000000   0.692389807

ATOMIC_POSITIONS (crystal)
Ba               0.5000000000        0.5000000000        0.5000637220
Ba               0.0000000000        0.0000000000        0.9999362780
B                0.6102604017        0.2391996726        0.0000139084
B                0.3897395983        0.7608003274        0.0000139084
B                0.1102604017        0.2608003274        0.4999860916
B                0.8897395983        0.7391996726        0.4999860916
H                0.4341097214        0.2921482778        0.0002637854
H                0.5658902786        0.7078517222        0.0002637854
H                0.9341097214        0.2078517222        0.4997362146
H                0.0658902786        0.7921482778        0.4997362146
H                0.7220618873        0.3835424555        0.0001297845
H                0.2779381127        0.6164575445        0.0001297845
H                0.2220618873        0.1164575445        0.4998702155
H                0.7779381127        0.8835424555        0.4998702155
H                0.6391870574        0.1420497010        0.7804643750
H                0.3608129426        0.8579502990        0.7804643750
H                0.1391870574        0.3579502990        0.7195356250
H                0.8608129426        0.6420497010        0.7195356250
H                0.3604852686        0.8578976315        0.2194902768
H                0.6395147314        0.1421023685        0.2194902768
H                0.8604852686        0.6421023685        0.2805097232
H                0.1395147314        0.3578976315        0.2805097232

     Writing config-only to output data dir ./pwscf.save/ :
     XML data file
     NEW-OLD atomic charge density approx. for the potential

[...]

     Threshold (ethr) on eigenvalues was too large:
     Diagonalizing with lowered threshold

     Davidson diagonalization with overlap
     ethr =  1.16E-11,  avg # of iterations =  4.1

[...]

     Energy error            =      2.9E-07 Ry
     Gradient error          =      1.5E-04 Ry/Bohr
     Cell gradient error     =      9.2E-03 kbar

[...]

     enthalpy           old  =    -156.4748565776 Ry
     enthalpy           new  =    -156.4748568698 Ry

     CASE: enthalpy          _new < enthalpy          _old

     WARNING: bfgs curvature condition failed, Theta= 0.975
     new trust radius        =       0.0001915349 bohr
     new conv_thr            =            1.0E-12 Ry

[...]

     small trust_radius: resetting bfgs history

[...]

     Energy error            =      1.2E-08 Ry
     Gradient error          =      2.5E-05 Ry/Bohr
     Cell gradient error     =      1.8E-02 kbar

     number of scf cycles    =   7
     number of bfgs steps    =   6

     enthalpy           old  =    -156.4748578011 Ry
     enthalpy           new  =    -156.4748578131 Ry

     CASE: enthalpy          _new < enthalpy          _old

     WARNING: bfgs curvature condition failed, Theta= 0.971
     Message from routine bfgs :: compute_trust_radius:
     history already reset at previous step: stopping
     small trust_radius: resetting bfgs history

     new trust radius        =       0.0000295941 bohr
     new conv_thr            =            1.0E-12 Ry

     new unit-cell volume =   1426.98189 a.u.^3 (   211.45690 Ang^3 )
     density =      2.62305 g/cm^3

[...]

ATOMIC_POSITIONS (crystal)
Ba               0.5000000000        0.5000000000        0.5000991656
Ba               0.0000000000        0.0000000000        0.9999008344
B                0.6102570162        0.2392023802        0.0000656569
B                0.3897429838        0.7607976198        0.0000656569
B                0.1102570162        0.2607976198        0.4999343431
B                0.8897429838        0.7392023802        0.4999343431
H                0.4340972523        0.2921557288        0.0002309332
H                0.5659027477        0.7078442712        0.0002309332
H                0.9340972523        0.2078442712        0.4997690668
H                0.0659027477        0.7921557288        0.4997690668
H                0.7220602679        0.3835550091       -0.0000083716
H                0.2779397321        0.6164449909       -0.0000083716
H                0.2220602679        0.1164449909        0.5000083716
H                0.7779397321        0.8835550091        0.5000083716
H                0.6392499245        0.1420943949        0.7804984139
H                0.3607500755        0.8579056051        0.7804984139
H                0.1392499245        0.3579056051        0.7195015861
H                0.8607500755        0.6420943949        0.7195015861
H                0.3605328308        0.8579559148        0.2195248482
H                0.6394671692        0.1420440852        0.2195248482
H                0.8605328308        0.6420440852        0.2804751518
H                0.1394671692        0.3579559148        0.2804751518

     Writing config-only to output data dir ./pwscf.save/ :
     XML data file
     NEW-OLD atomic charge density approx. for the potential

     Self-consistent Calculation

[...]

     Threshold (ethr) on eigenvalues was too large:
     Diagonalizing with lowered threshold

     Davidson diagonalization with overlap
     ethr =  7.53E-13,  avg # of iterations =  4.0

[...]

     total energy              =    -156.47485782 Ry
     estimated scf accuracy    <          1.6E-12 Ry

     iteration #  4     ecut=   100.00 Ry     beta= 0.70
     Davidson diagonalization with overlap
     ethr =  1.00E-13,  avg # of iterations =  1.0

     End of self-consistent calculation

[...]

          k = 0.2500-0.4875-0.7221 ( 24088 PWs)   bands (ev):

[...]

          k =-0.5000-0.4875-0.7221 ( 24112 PWs)   bands (ev):

   -23.7580 -23.7580  -9.4684  -9.4684  -9.1118  -9.1118  -9.0482  -9.0482
    -4.9004  -4.9004  -4.3953  -4.3953  -1.4824  -1.4824  -0.7922  -0.7922
     0.3021   0.3021   0.3493   0.3493   0.4953   0.4953   0.7356   0.7356

     highest occupied level (ev):     0.8885

!    total energy              =    -156.47485782 Ry
     estimated scf accuracy    <          7.6E-14 Ry

     The total energy is the sum of the following terms:
     one-electron contribution =     -21.46558871 Ry
     hartree contribution      =      25.27094484 Ry
     xc contribution           =     -49.14498549 Ry
     ewald contribution        =    -111.13522847 Ry

     convergence has been achieved in   4 iterations

     Forces acting on atoms (cartesian axes, Ry/au):

     atom    1 type  2   force =     0.00000000    0.00000000    0.00001308
     atom    2 type  2   force =     0.00000000    0.00000000   -0.00001308
     atom    3 type  1   force =    -0.00000074   -0.00000115   -0.00001258
     atom    4 type  1   force =     0.00000074    0.00000115   -0.00001258
     atom    5 type  1   force =    -0.00000074    0.00000115    0.00001258
     atom    6 type  1   force =     0.00000074   -0.00000115    0.00001258
     atom    7 type  3   force =    -0.00000222   -0.00000221   -0.00001646
     atom    8 type  3   force =     0.00000222    0.00000221   -0.00001646
     atom    9 type  3   force =    -0.00000222    0.00000221    0.00001646
     atom   10 type  3   force =     0.00000222   -0.00000221    0.00001646
     atom   11 type  3   force =    -0.00000323    0.00000341    0.00000561
     atom   12 type  3   force =     0.00000323   -0.00000341    0.00000561
     atom   13 type  3   force =    -0.00000323   -0.00000341   -0.00000561
     atom   14 type  3   force =     0.00000323    0.00000341   -0.00000561
     atom   15 type  3   force =     0.00002383   -0.00000774   -0.00000375
     atom   16 type  3   force =    -0.00002383    0.00000774   -0.00000375
     atom   17 type  3   force =     0.00002383    0.00000774    0.00000375
     atom   18 type  3   force =    -0.00002383   -0.00000774    0.00000375
     atom   19 type  3   force =     0.00002272   -0.00001178   -0.00000595
     atom   20 type  3   force =    -0.00002272    0.00001178   -0.00000595
     atom   21 type  3   force =     0.00002272    0.00001178    0.00000595
     atom   22 type  3   force =    -0.00002272   -0.00001178    0.00000595

     Total force =     0.000087     Total SCF correction =     0.000000

     Computing stress (Cartesian axis) and pressure

          total   stress  (Ry/bohr**3)                   (kbar)     P=       -0.00
  -0.00000006   0.00000000   0.00000000           -0.01        0.00        0.00
   0.00000000  -0.00000009   0.00000000            0.00       -0.01        0.00
   0.00000000   0.00000000   0.00000006            0.00        0.00        0.01

     Message from routine bfgs:
     history already reset at previous step: exiting
     Energy error            =      9.2E-09 Ry
     Gradient error          =      2.4E-05 Ry/Bohr
     Cell gradient error     =      1.3E-02 kbar

     bfgs failed after   8 scf cycles and   7 bfgs steps, convergence not achieved
     (criteria: energy <  1.0E-05 Ry, force <  1.0E-05 Ry/Bohr, cell <  1.0E-01 kbar)

     End of BFGS Geometry Optimization

     Final enthalpy           =    -156.4748578223 Ry

     File ./pwscf.bfgs deleted, as requested
Begin final coordinates
     new unit-cell volume =   1426.98189 a.u.^3 (   211.45690 Ang^3 )
     density =      2.62305 g/cm^3

CELL_PARAMETERS (alat= 12.61953421)
   0.999976508   0.000000000   0.000000000
   0.000000000   1.025546826   0.000000000
   0.000000000   0.000000000   0.692377897

ATOMIC_POSITIONS (crystal)
Ba               0.5000000000        0.5000000000        0.5000991656
Ba               0.0000000000        0.0000000000        0.9999008344
B                0.6102570162        0.2392023802        0.0000656569
B                0.3897429838        0.7607976198        0.0000656569
B                0.1102570162        0.2607976198        0.4999343431
B                0.8897429838        0.7392023802        0.4999343431
H                0.4340972523        0.2921557288        0.0002309332
H                0.5659027477        0.7078442712        0.0002309332
H                0.9340972523        0.2078442712        0.4997690668
H                0.0659027477        0.7921557288        0.4997690668
H                0.7220602679        0.3835550091       -0.0000083716
H                0.2779397321        0.6164449909       -0.0000083716
H                0.2220602679        0.1164449909        0.5000083716
H                0.7779397321        0.8835550091        0.5000083716
H                0.6392499245        0.1420943949        0.7804984139
H                0.3607500755        0.8579056051        0.7804984139
H                0.1392499245        0.3579056051        0.7195015861
H                0.8607500755        0.6420943949        0.7195015861
H                0.3605328308        0.8579559148        0.2195248482
H                0.6394671692        0.1420440852        0.2195248482
H                0.8605328308        0.6420440852        0.2804751518
H                0.1394671692        0.3579559148        0.2804751518
End final coordinates

     Writing config-only to output data dir ./pwscf.save/ :
     XML data file

     Writing all to output data dir ./pwscf.save/ :
     XML data file, charge density, pseudopotentials, collected wavefunctions

     General routines

     Parallel routines

   This run was terminated on:  11:20:17   9Jul2024

   JOB DONE.