     Program PWSCF v.7.3.1 starts on 12Jul2024 at 15: 0:18

     Waiting for input...
     Reading input from standard input

     Current dimensions of program PWSCF are:
     Max number of different atomic species (ntypx) = 10
     Max number of k-points (npk) =  40000
     Max angular momentum in pseudopotentials (lmaxx) =  4

     R & G space division:  proc/nbgrp/npool/nimage =      16
     Subspace diagonalization in iterative solution of the eigenvalue problem:
     a serial algorithm will be used

     Using Slab Decomposition

     Title:
     volume variation

     bravais-lattice index     =            8
     lattice parameter (alat)  =      12.7028  a.u.
     unit-cell volume          =    1455.5097 (a.u.)^3
     number of atoms/cell      =           22
     number of atomic types    =            3
     number of electrons       =        48.00
     number of Kohn-Sham states=           24
     kinetic-energy cutoff     =     100.0000  Ry
     charge density cutoff     =     800.0000  Ry
     scf convergence threshold =      1.0E-10
     mixing beta               =       0.7000
     number of iterations used =            8  plain     mixing
     energy convergence thresh.=      1.0E-05
     force convergence thresh. =      1.0E-05
     press convergence thresh. =      5.0E-01
     Exchange-correlation= PBESOL
                           (   1   4  10   8   0   0   0)
     nstep                     =          300

     celldm(1)=  12.702777  celldm(2)=   1.025571  celldm(3)=   0.692394
     celldm(4)=   0.000000  celldm(5)=   0.000000  celldm(6)=   0.000000

     crystal axes: (cart. coord. in units of alat)
               a(1) = (   1.000000   0.000000   0.000000 )
               a(2) = (   0.000000   1.025571   0.000000 )
               a(3) = (   0.000000   0.000000   0.692394 )

     reciprocal axes: (cart. coord. in units 2 pi/alat)
               b(1) = (  1.000000  0.000000  0.000000 )
               b(2) = (  0.000000  0.975067  0.000000 )
               b(3) = (  0.000000  0.000000  1.444264 )

     PseudoPot. # 1 for B  read from file:
     /home/mehlhorn/pseudos/b_pbesol_v1.4.uspp.F.UPF
     MD5 check sum: 369b69bef2c3aeed4453bd8b804fd6a8
     Pseudo is Ultrasoft + core correction, Zval =  3.0
     Generated by new atomic code, or converted to UPF format
     Using radial grid of  781 points,  4 beta functions with:
                l(1) =   0
                l(2) =   0
                l(3) =   1
                l(4) =   1
     Q(r) pseudized with  8 coefficients,  rinner =    1.100   1.100   1.100

     PseudoPot. # 2 for Ba read from file:
     /home/mehlhorn/pseudos/Ba.nc.z_10.oncvpsp4.dojo.v4-sp.upf
     MD5 check sum: c10ed334bb677c0554edec7181ce9143
     Pseudo is Norm-conserving + core correction, Zval = 10.0
     Generated using ONCVPSP code by D. R. Hamann
     Using radial grid of 1938 points,  8 beta functions with:
                l(1) =   0
                l(2) =   0
                l(3) =   1
                l(4) =   1
                l(5) =   2
                l(6) =   2
                l(7) =   3
                l(8) =   3

     PseudoPot. # 3 for H  read from file:
     /home/mehlhorn/pseudos/H_ONCV_PBEsol-1.0.upf
     MD5 check sum: 398ef8f67c0a7342c05c87c5e19ea467
     Pseudo is Norm-conserving, Zval =  1.0
     Generated using ONCVPSP code by D. R. Hamann
     Using radial grid of 1180 points,  2 beta functions with:
                l(1) =   0
                l(2) =   0

     atomic species   valence    mass     pseudopotential
     B                 3.00    10.81100     B ( 1.00)
     Ba               10.00   137.32700     Ba( 1.00)
     H                 1.00     1.00794     H ( 1.00)

      4 Sym. Ops. (no inversion) found ( 2 have fractional translation)

   Cartesian axes

     site n.     atom                  positions (alat units)
         1        Ba     tau(   1) = (   0.5000000   0.5127855   0.3462657  )
         2        Ba     tau(   2) = (   0.0000000   0.0000000   0.6923255  )
         3        B      tau(   3) = (   0.6102570   0.2453190   0.0000455  )
         4        B      tau(   4) = (   0.3897430   0.7802519   0.0000455  )
         5        B      tau(   5) = (   0.1102570   0.2674665   0.3461516  )
         6        B      tau(   6) = (   0.8897430   0.7581045   0.3461516  )
         7        H      tau(   7) = (   0.4340973   0.2996264   0.0001599  )
         8        H      tau(   8) = (   0.5659027   0.7259445   0.0001599  )
         9        H      tau(   9) = (   0.9340973   0.2131590   0.3460372  )
        10        H      tau(  10) = (   0.0659027   0.8124119   0.3460372  )
        11        H      tau(  11) = (   0.7220603   0.3933629  -0.0000058  )
        12        H      tau(  12) = (   0.2779397   0.6322081  -0.0000058  )
        13        H      tau(  13) = (   0.2220603   0.1194226   0.3462029  )
        14        H      tau(  14) = (   0.7779397   0.9061483   0.3462029  )
        15        H      tau(  15) = (   0.6392499   0.1457279   0.5404125  )
        16        H      tau(  16) = (   0.3607501   0.8798430   0.5404125  )
        17        H      tau(  17) = (   0.1392499   0.3670576   0.4981787  )
        18        H      tau(  18) = (   0.8607501   0.6585133   0.4981787  )
        19        H      tau(  19) = (   0.3605328   0.8798946   0.1519977  )
        20        H      tau(  20) = (   0.6394672   0.1456763   0.1519977  )
        21        H      tau(  21) = (   0.8605328   0.6584617   0.1941994  )
        22        H      tau(  22) = (   0.1394672   0.3671092   0.1941994  )

     number of k points=    27
                       cart. coord. in units 2pi/alat
        k(    1) = (   0.0000000   0.0000000   0.0000000), wk =   0.0312500
        k(    2) = (   0.0000000   0.0000000   0.3610660), wk =   0.0625000
        k(    3) = (   0.0000000   0.0000000  -0.7221320), wk =   0.0312500
        k(    4) = (   0.0000000   0.2437667   0.0000000), wk =   0.0625000
        k(    5) = (   0.0000000   0.2437667   0.3610660), wk =   0.1250000
        k(    6) = (   0.0000000   0.2437667  -0.7221320), wk =   0.0625000
        k(    7) = (   0.0000000  -0.4875333   0.0000000), wk =   0.0312500
        k(    8) = (   0.0000000  -0.4875333   0.3610660), wk =   0.0625000
        k(    9) = (   0.0000000  -0.4875333  -0.7221320), wk =   0.0312500
        k(   10) = (   0.2500000   0.0000000   0.0000000), wk =   0.0625000
        k(   11) = (   0.2500000   0.0000000   0.3610660), wk =   0.1250000
        k(   12) = (   0.2500000   0.0000000  -0.7221320), wk =   0.0625000
        k(   13) = (   0.2500000   0.2437667   0.0000000), wk =   0.1250000
        k(   14) = (   0.2500000   0.2437667   0.3610660), wk =   0.2500000
        k(   15) = (   0.2500000   0.2437667  -0.7221320), wk =   0.1250000
        k(   16) = (   0.2500000  -0.4875333   0.0000000), wk =   0.0625000
        k(   17) = (   0.2500000  -0.4875333   0.3610660), wk =   0.1250000
        k(   18) = (   0.2500000  -0.4875333  -0.7221320), wk =   0.0625000
        k(   19) = (  -0.5000000   0.0000000   0.0000000), wk =   0.0312500
        k(   20) = (  -0.5000000   0.0000000   0.3610660), wk =   0.0625000
        k(   21) = (  -0.5000000   0.0000000  -0.7221320), wk =   0.0312500
        k(   22) = (  -0.5000000   0.2437667   0.0000000), wk =   0.0625000
        k(   23) = (  -0.5000000   0.2437667   0.3610660), wk =   0.1250000
        k(   24) = (  -0.5000000   0.2437667  -0.7221320), wk =   0.0625000
        k(   25) = (  -0.5000000  -0.4875333   0.0000000), wk =   0.0312500
        k(   26) = (  -0.5000000  -0.4875333   0.3610660), wk =   0.0625000
        k(   27) = (  -0.5000000  -0.4875333  -0.7221320), wk =   0.0312500

     Initial potential from superposition of free atoms

     starting charge      47.9682, renormalised to      48.0000
     Starting wfcs are   42 randomized atomic wfcs

     Self-consistent Calculation

     iteration #  1     ecut=   100.00 Ry     beta= 0.70
     Davidson diagonalization with overlap
     ethr =  1.00E-02,  avg # of iterations =  2.0

     total energy              =    -155.93840710 Ry
     estimated scf accuracy    <       2.04231266 Ry

[...]

     End of self-consistent calculation

          k = 0.0000 0.0000 0.0000 ( 24527 PWs)   bands (ev):

   -23.9745 -23.9659  -9.5023  -9.4178  -9.2294  -9.1921  -9.1615  -9.1001
    -6.0404  -5.0886  -4.4319  -4.2783  -1.7529  -0.8382  -0.7885  -0.4234
    -0.0483  -0.0361   0.0047   0.1358   0.2972   0.7062   0.7258   0.7675

[...]

          k =-0.5000 0.0000 0.0000 ( 24540 PWs)   bands (ev):

[...]

     highest occupied level (ev):     0.7675

!    total energy              =    -156.47371575 Ry
     estimated scf accuracy    <          4.4E-11 Ry

     The total energy is the sum of the following terms:
     one-electron contribution =     -22.54448375 Ry
     hartree contribution      =      25.51920124 Ry
     xc contribution           =     -49.04407944 Ry
     ewald contribution        =    -110.40435380 Ry

     convergence has been achieved in  11 iterations

     Forces acting on atoms (cartesian axes, Ry/au):

     atom    1 type  2   force =     0.00000000    0.00000000    0.00001217
     atom    2 type  2   force =     0.00000000    0.00000000   -0.00001217
     atom    3 type  1   force =     0.00012350    0.00061236   -0.00001338
     atom    4 type  1   force =    -0.00012350   -0.00061236   -0.00001338
     atom    5 type  1   force =     0.00012350   -0.00061236    0.00001338
     atom    6 type  1   force =    -0.00012350    0.00061236    0.00001338
     atom    7 type  3   force =     0.00525792   -0.00133411   -0.00001802
     atom    8 type  3   force =    -0.00525792    0.00133411   -0.00001802
     atom    9 type  3   force =     0.00525792    0.00133411    0.00001802
     atom   10 type  3   force =    -0.00525792   -0.00133411    0.00001802
     atom   11 type  3   force =    -0.00347850   -0.00419798    0.00000647
     atom   12 type  3   force =     0.00347850    0.00419798    0.00000647
     atom   13 type  3   force =    -0.00347850    0.00419798   -0.00000647
     atom   14 type  3   force =     0.00347850   -0.00419798   -0.00000647
     atom   15 type  3   force =    -0.00062744    0.00308483    0.00469031
     atom   16 type  3   force =     0.00062744   -0.00308483    0.00469031
     atom   17 type  3   force =    -0.00062744   -0.00308483   -0.00469031
     atom   18 type  3   force =     0.00062744    0.00308483   -0.00469031
     atom   19 type  3   force =     0.00067805   -0.00310450   -0.00469847
     atom   20 type  3   force =    -0.00067805    0.00310450   -0.00469847
     atom   21 type  3   force =     0.00067805    0.00310450    0.00469847
     atom   22 type  3   force =    -0.00067805   -0.00310450    0.00469847

     Total force =     0.022237     Total SCF correction =     0.000004

     Computing stress (Cartesian axis) and pressure

          total   stress  (Ry/bohr**3)                   (kbar)     P=      -11.69
  -0.00007393   0.00000000   0.00000000          -10.88        0.00        0.00
   0.00000000  -0.00007546   0.00000000            0.00      -11.10        0.00
[...]
     1.00555029     0.00000000     0.00000000
     0.00000000     1.02514490     0.00000000
     0.00000000     0.00000000     0.68885853
New lattice vectors in INITIAL alat:
     1.00555029     0.00000000     0.00000000
     0.00000000     1.02514490     0.00000000
     0.00000000     0.00000000     0.68885853
New lattice vectors in NEW alat (for information only):
     1.00000000     0.00000000     0.00000000
     0.00000000     1.01948646     0.00000000
     0.00000000     0.00000000     0.68505627
Discrepancy in bohr =     0.000000    0.000000    0.000000
     new conv_thr            =            1.0E-12 Ry

     new unit-cell volume =   1455.50969 a.u.^3 (   215.68428 Ang^3 )
     density =      2.57164 g/cm^3

[...]

ATOMIC_POSITIONS (crystal)
Ba               0.5000000000        0.5000000000        0.5000037463
Ba               0.0000000000        0.0000000000        0.9999962537
B                0.6133598638        0.2415450569       -0.0000005326
B                0.3866401362        0.7584549431       -0.0000005326
B                0.1133598638        0.2584549431        0.5000005326
B                0.8866401362        0.7415450569        0.5000005326
H                0.4383040607        0.2911511846       -0.0000210573
H                0.5616959393        0.7088488154       -0.0000210573
H                0.9383040607        0.2088488154        0.5000210573
H                0.0616959393        0.7911511846        0.5000210573
H                0.7211539285        0.3869196913        0.0000136345
H                0.2788460715        0.6130803087        0.0000136345
H                0.2211539285        0.1130803087        0.4999863655
H                0.7788460715        0.8869196913        0.4999863655
H                0.6437966956        0.1454971741        0.7806939336
H                0.3562033044        0.8545028259        0.7806939336
H                0.1437966956        0.3545028259        0.7193060664
H                0.8562033044        0.6454971741        0.7193060664
H                0.3562186794        0.8544990186        0.2193122984
H                0.6437813206        0.1455009814        0.2193122984
H                0.8562186794        0.6455009814        0.2806877016
H                0.1437813206        0.3544990186        0.2806877016

     Writing config-only to output data dir ./pwscf.save/ :
     XML data file
     NEW-OLD atomic charge density approx. for the potential

[...]

     Threshold (ethr) on eigenvalues was too large:
     Diagonalizing with lowered threshold

     Davidson diagonalization with overlap
     ethr =  1.82E-11,  avg # of iterations =  4.3

[...]

     Volume is kept fixed: isostatic pressure set to zero
     Energy error            =      1.1E-08 Ry
     Gradient error          =      8.3E-06 Ry/Bohr
     Cell gradient error     =      5.0E-03 kbar
ibrav =      8
 celldm(1) =     12.77328093
 celldm(2) =      1.01948646
 celldm(3) =      0.68505627
Input lattice vectors:
     1.00555029     0.00000000     0.00000000
     0.00000000     1.02514490     0.00000000
     0.00000000     0.00000000     0.68885853
New lattice vectors in INITIAL alat:
     1.00555029     0.00000000     0.00000000
     0.00000000     1.02514490     0.00000000
     0.00000000     0.00000000     0.68885853
New lattice vectors in NEW alat (for information only):
     1.00000000     0.00000000     0.00000000
     0.00000000     1.01948646     0.00000000
     0.00000000     0.00000000     0.68505627
Discrepancy in bohr =     0.000000    0.000000    0.000000

     bfgs converged in  56 scf cycles and  55 bfgs steps
     (criteria: energy <  1.0E-05 Ry, force <  1.0E-05 Ry/Bohr, cell <  5.0E-01 kbar)

     End of BFGS Geometry Optimization

     Final enthalpy           =    -156.4745591386 Ry

     File ./pwscf.bfgs deleted, as requested
Begin final coordinates
     new unit-cell volume =   1455.50969 a.u.^3 (   215.68428 Ang^3 )
     density =      2.57164 g/cm^3

CELL_PARAMETERS (alat= 12.70277685)
   1.005550289   0.000000000   0.000000000
   0.000000000   1.025144904   0.000000000
   0.000000000   0.000000000   0.688858534

ATOMIC_POSITIONS (crystal)
Ba               0.5000000000        0.5000000000        0.5000037463
Ba               0.0000000000        0.0000000000        0.9999962537
B                0.6133598638        0.2415450569       -0.0000005326
B                0.3866401362        0.7584549431       -0.0000005326
B                0.1133598638        0.2584549431        0.5000005326
B                0.8866401362        0.7415450569        0.5000005326
H                0.4383040607        0.2911511846       -0.0000210573
H                0.5616959393        0.7088488154       -0.0000210573
H                0.9383040607        0.2088488154        0.5000210573
H                0.0616959393        0.7911511846        0.5000210573
H                0.7211539285        0.3869196913        0.0000136345
H                0.2788460715        0.6130803087        0.0000136345
H                0.2211539285        0.1130803087        0.4999863655
H                0.7788460715        0.8869196913        0.4999863655
H                0.6437966956        0.1454971741        0.7806939336
H                0.3562033044        0.8545028259        0.7806939336
H                0.1437966956        0.3545028259        0.7193060664
H                0.8562033044        0.6454971741        0.7193060664
H                0.3562186794        0.8544990186        0.2193122984
H                0.6437813206        0.1455009814        0.2193122984
H                0.8562186794        0.6455009814        0.2806877016
H                0.1437813206        0.3544990186        0.2806877016
End final coordinates

     Writing config-only to output data dir ./pwscf.save/ :
     XML data file

     Final scf calculation at the relaxed structure.
     The G-vectors are recalculated for the final unit cell
     Results may differ from those at the preceding step.

     Using Slab Decomposition

     Title:
     volume variation

     bravais-lattice index     =            8
     lattice parameter (alat)  =      12.7028  a.u.
     unit-cell volume          =    1455.5097 (a.u.)^3
     number of atoms/cell      =           22
     number of atomic types    =            3
     number of electrons       =        48.00
     number of Kohn-Sham states=           24
     kinetic-energy cutoff     =     100.0000  Ry
     charge density cutoff     =     800.0000  Ry
     scf convergence threshold =      1.0E-12
     mixing beta               =       0.7000
     number of iterations used =            8  plain     mixing
     press convergence thresh. =      5.0E-01
     Exchange-correlation= PBESOL
                           (   1   4  10   8   0   0   0)

     celldm(1)=  12.702777  celldm(2)=   1.025571  celldm(3)=   0.692394
     celldm(4)=   0.000000  celldm(5)=   0.000000  celldm(6)=   0.000000

     crystal axes: (cart. coord. in units of alat)
               a(1) = (   1.005550   0.000000   0.000000 )
               a(2) = (   0.000000   1.025145   0.000000 )
               a(3) = (   0.000000   0.000000   0.688859 )

     reciprocal axes: (cart. coord. in units 2 pi/alat)
               b(1) = (  0.994480  0.000000  0.000000 )
               b(2) = (  0.000000  0.975472  0.000000 )
               b(3) = (  0.000000  0.000000  1.451677 )

     PseudoPot. # 1 for B  read from file:
     /home/mehlhorn/pseudos/b_pbesol_v1.4.uspp.F.UPF
     MD5 check sum: 369b69bef2c3aeed4453bd8b804fd6a8
     Pseudo is Ultrasoft + core correction, Zval =  3.0
     Generated by new atomic code, or converted to UPF format
     Using radial grid of  781 points,  4 beta functions with:
                l(1) =   0
                l(2) =   0
                l(3) =   1
                l(4) =   1
     Q(r) pseudized with  8 coefficients,  rinner =    1.100   1.100   1.100

     PseudoPot. # 2 for Ba read from file:
     /home/mehlhorn/pseudos/Ba.nc.z_10.oncvpsp4.dojo.v4-sp.upf
     MD5 check sum: c10ed334bb677c0554edec7181ce9143
     Pseudo is Norm-conserving + core correction, Zval = 10.0
     Generated using ONCVPSP code by D. R. Hamann
     Using radial grid of 1938 points,  8 beta functions with:
                l(1) =   0
                l(2) =   0
                l(3) =   1
                l(4) =   1
                l(5) =   2
                l(6) =   2
                l(7) =   3
                l(8) =   3

     PseudoPot. # 3 for H  read from file:
     /home/mehlhorn/pseudos/H_ONCV_PBEsol-1.0.upf
     MD5 check sum: 398ef8f67c0a7342c05c87c5e19ea467
     Pseudo is Norm-conserving, Zval =  1.0
     Generated using ONCVPSP code by D. R. Hamann
     Using radial grid of 1180 points,  2 beta functions with:
                l(1) =   0
                l(2) =   0

     atomic species   valence    mass     pseudopotential
     B                 3.00    10.81100     B ( 1.00)
     Ba               10.00   137.32700     Ba( 1.00)
     H                 1.00     1.00794     H ( 1.00)

      4 Sym. Ops. (no inversion) found ( 2 have fractional translation)

   Cartesian axes

     site n.     atom                  positions (alat units)
         1        Ba     tau(   1) = (   0.5027751   0.5125725   0.3444318  )
         2        Ba     tau(   2) = (   0.0000000   0.0000000   0.6888560  )
         3        B      tau(   3) = (   0.6167642   0.2476187  -0.0000004  )
         4        B      tau(   4) = (   0.3887861   0.7775262  -0.0000004  )
         5        B      tau(   5) = (   0.1139890   0.2649538   0.3444296  )
         6        B      tau(   6) = (   0.8915612   0.7601911   0.3444296  )
         7        H      tau(   7) = (   0.4407368   0.2984722  -0.0000145  )
         8        H      tau(   8) = (   0.5648135   0.7266728  -0.0000145  )
         9        H      tau(   9) = (   0.9435119   0.2141003   0.3444438  )
        10        H      tau(  10) = (   0.0620384   0.8110446   0.3444438  )
        11        H      tau(  11) = (   0.7251565   0.3966487   0.0000094  )
        12        H      tau(  12) = (   0.2803937   0.6284962   0.0000094  )
        13        H      tau(  13) = (   0.2223814   0.1159237   0.3444199  )
        14        H      tau(  14) = (   0.7831689   0.9092212   0.3444199  )
        15        H      tau(  15) = (   0.6473700   0.1491557   0.5377877  )
        16        H      tau(  16) = (   0.3581803   0.8759892   0.5377877  )
        17        H      tau(  17) = (   0.1445948   0.3634168   0.4955001  )
        18        H      tau(  18) = (   0.8609555   0.6617281   0.4955001  )
        19        H      tau(  19) = (   0.3581958   0.8759853   0.1510751  )
        20        H      tau(  20) = (   0.6473545   0.1491596   0.1510751  )
        21        H      tau(  21) = (   0.8609709   0.6617320   0.1933541  )
        22        H      tau(  22) = (   0.1445793   0.3634129   0.1933541  )

     number of k points=    27
                       cart. coord. in units 2pi/alat
        k(    1) = (   0.0000000   0.0000000   0.0000000), wk =   0.0312500
        k(    2) = (   0.0000000   0.0000000   0.3629192), wk =   0.0625000
        k(    3) = (   0.0000000   0.0000000  -0.7258384), wk =   0.0312500
        k(    4) = (   0.0000000   0.2438680   0.0000000), wk =   0.0625000
        k(    5) = (   0.0000000   0.2438680   0.3629192), wk =   0.1250000
        k(    6) = (   0.0000000   0.2438680  -0.7258384), wk =   0.0625000
        k(    7) = (   0.0000000  -0.4877359   0.0000000), wk =   0.0312500
        k(    8) = (   0.0000000  -0.4877359   0.3629192), wk =   0.0625000
        k(    9) = (   0.0000000  -0.4877359  -0.7258384), wk =   0.0312500
        k(   10) = (   0.2486201   0.0000000   0.0000000), wk =   0.0625000
        k(   11) = (   0.2486201   0.0000000   0.3629192), wk =   0.1250000
        k(   12) = (   0.2486201   0.0000000  -0.7258384), wk =   0.0625000
        k(   13) = (   0.2486201   0.2438680   0.0000000), wk =   0.1250000
        k(   14) = (   0.2486201   0.2438680   0.3629192), wk =   0.2500000
        k(   15) = (   0.2486201   0.2438680  -0.7258384), wk =   0.1250000
        k(   16) = (   0.2486201  -0.4877359   0.0000000), wk =   0.0625000
        k(   17) = (   0.2486201  -0.4877359   0.3629192), wk =   0.1250000
        k(   18) = (   0.2486201  -0.4877359  -0.7258384), wk =   0.0625000
        k(   19) = (  -0.4972402   0.0000000   0.0000000), wk =   0.0312500
        k(   20) = (  -0.4972402   0.0000000   0.3629192), wk =   0.0625000
        k(   21) = (  -0.4972402   0.0000000  -0.7258384), wk =   0.0312500
        k(   22) = (  -0.4972402   0.2438680   0.0000000), wk =   0.0625000
        k(   23) = (  -0.4972402   0.2438680   0.3629192), wk =   0.1250000
        k(   24) = (  -0.4972402   0.2438680  -0.7258384), wk =   0.0625000
        k(   25) = (  -0.4972402  -0.4877359   0.0000000), wk =   0.0312500
        k(   26) = (  -0.4972402  -0.4877359   0.3629192), wk =   0.0625000
        k(   27) = (  -0.4972402  -0.4877359  -0.7258384), wk =   0.0312500

     Initial potential from superposition of free atoms

     starting charge      47.9682, renormalised to      48.0000
     Starting wfcs are   42 randomized atomic wfcs

     Self-consistent Calculation

[...]

     total energy              =    -156.47455917 Ry
     estimated scf accuracy    <          1.2E-12 Ry

     iteration # 13     ecut=   100.00 Ry     beta= 0.70
     Davidson diagonalization with overlap
     ethr =  1.00E-13,  avg # of iterations =  1.0

     End of self-consistent calculation

[...]

          k = 0.2486-0.4877-0.7258 ( 24600 PWs)   bands (ev):

[...]

          k =-0.4972-0.4877-0.7258 ( 24592 PWs)   bands (ev):

   -23.9484 -23.9484  -9.6343  -9.6343  -9.2806  -9.2806  -9.2291  -9.2291
    -5.0351  -5.0351  -4.5617  -4.5617  -1.5771  -1.5771  -0.9326  -0.9326
     0.1372   0.1372   0.2326   0.2326   0.3313   0.3313   0.5802   0.5802

     highest occupied level (ev):     0.7187

!    total energy              =    -156.47455917 Ry
     estimated scf accuracy    <          7.6E-13 Ry

     The total energy is the sum of the following terms:
     one-electron contribution =     -23.54594978 Ry
     hartree contribution      =      26.01947544 Ry
     xc contribution           =     -49.11398901 Ry
     ewald contribution        =    -109.83409582 Ry

     convergence has been achieved in  13 iterations

     Forces acting on atoms (cartesian axes, Ry/au):

     atom    1 type  2   force =     0.00000000    0.00000000   -0.00000695
     atom    2 type  2   force =     0.00000000    0.00000000    0.00000695
     atom    3 type  1   force =    -0.00000238    0.00000169    0.00000142
     atom    4 type  1   force =     0.00000238   -0.00000169    0.00000142
     atom    5 type  1   force =    -0.00000238   -0.00000169   -0.00000142
     atom    6 type  1   force =     0.00000238    0.00000169   -0.00000142
     atom    7 type  3   force =     0.00000679    0.00000262    0.00000607
     atom    8 type  3   force =    -0.00000679   -0.00000262    0.00000607
     atom    9 type  3   force =     0.00000679   -0.00000262   -0.00000607
     atom   10 type  3   force =    -0.00000679    0.00000262   -0.00000607
     atom   11 type  3   force =    -0.00000835   -0.00000800   -0.00000577
     atom   12 type  3   force =     0.00000835    0.00000800   -0.00000577
     atom   13 type  3   force =    -0.00000835    0.00000800    0.00000577
     atom   14 type  3   force =     0.00000835   -0.00000800    0.00000577
     atom   15 type  3   force =     0.00000381    0.00000516    0.00000767
     atom   16 type  3   force =    -0.00000381   -0.00000516    0.00000767
     atom   17 type  3   force =     0.00000381   -0.00000516   -0.00000767
     atom   18 type  3   force =    -0.00000381    0.00000516   -0.00000767
     atom   19 type  3   force =    -0.00000096    0.00000007   -0.00000641
     atom   20 type  3   force =     0.00000096   -0.00000007   -0.00000641
     atom   21 type  3   force =    -0.00000096   -0.00000007    0.00000641
     atom   22 type  3   force =     0.00000096    0.00000007    0.00000641

     Total force =     0.000042     Total SCF correction =     0.000000

     Computing stress (Cartesian axis) and pressure

          total   stress  (Ry/bohr**3)                   (kbar)     P=       -3.05
  -0.00002069   0.00000000   0.00000000           -3.04        0.00        0.00
   0.00000000  -0.00002074   0.00000000            0.00       -3.05        0.00
   0.00000000   0.00000000  -0.00002076            0.00        0.00       -3.05

     Writing all to output data dir ./pwscf.save/ :
     XML data file, charge density, pseudopotentials, collected wavefunctions

     General routines

     Parallel routines

   This run was terminated on:  16: 0:15  12Jul2024

   JOB DONE.